Li8 Mn16 O48                            
   1.00000000000000     
     9.9963160000000002    0.0000090000000000    0.0017840000000000
    -4.9981650000000002    8.6570590000000003   -0.0022840000000000
    -0.0014680000000000    0.0013220000000000    8.2255669999999999
   Li   Mn   O 
     8    16    48
Direct
  0.0007568367986625  0.0007939990742959  0.0016961883655684
  0.9970573381329237  0.9970532084426956  0.5020797376668460
  0.0001727051040616  0.4997825946064887 -0.0000036414412127
  0.9994443060207133  0.5005486912691390  0.4999641041303344
  0.4998012892576071  1.0001745338913333  1.0000848038719512
  0.5006229250756037  0.9995125866032706  0.4999432999560792
  0.4992169665602785  0.4991570931375808  0.9983581017369758
  0.5029483621997901  0.5029868100776066  0.4977989354169928
  0.1686722993134302  0.3418830570601308  0.2557993750941908
  0.1579566284751800  0.3313288694703517  0.7442992731730221
  0.1649407540212243  0.8346626525253676  0.2512093021820724
  0.1664373163841987  0.8288583349972926  0.7506858641268604
  0.6712889626816965  0.3337586438176240  0.2495089714445398
  0.6652955701349416  0.3350475774076857  0.7486103624162572
  0.6655601435011305  0.8319441897933629  0.2470891426252257
  0.6680586554220480  0.8343044224502884  0.7528530605629505
  0.3419916793511160  0.1686303767223839  0.2558346070523202
  0.3313488591555877  0.1581603635504657  0.7441939940434450
  0.3336257257991803  0.6711742949536939  0.2492725853028008
  0.3350647228279265  0.6653083789374797  0.7487662196628350
  0.8347184104560924  0.1649938137198158  0.2513463333561246
  0.8286437543525269  0.1662056882272532  0.7506002955575032
  0.8319214059374570  0.6656703296582782  0.2471021258991861
  0.8344906021055422  0.6680861328415201  0.7528600982240955
  0.3214598124486810  0.3213683909205853  0.1389430038724657
  0.2928561227802731  0.2929508867739605  0.5715748372938665
  0.3195474757470337  0.8237133657657414  0.1257576206154892
  0.3226005303571681  0.8202255030263205  0.6275867195114457
  0.8238717724432629  0.3197196636068108  0.1260565199221120
  0.8200470183304033  0.3223456599390462  0.6273813416089010
  0.8186867181849367  0.8187563547411206  0.1229150992089592
  0.8244042145985888  0.8243513954214646  0.6311977374865899
  0.1766075440431898  0.0077967445838409  0.1393382386299377
  0.1761170997809172  0.9922775906730986  0.6249859379353389
  0.1771061672599727  0.4984034809068769  0.1295670488604823
  0.1788075224199484  0.5013194428755998  0.6230437850412145
  0.6809748107422315  0.0008346860433449  0.1251613230648572
  0.6762824083154136  0.9990955496570512  0.6293949295819750
  0.6792173194664550  0.4972689841992282  0.1237050072732073
  0.6781447062311848  0.5031986499728198  0.6283354523052772
  0.0077326683804424  0.1764589664588808  0.1394238561039589
  0.9922152446701148  0.1760638452866926  0.6250407664024646
  0.0007364747446581  0.6810570128557201  0.1250191535981706
  0.9993578050585791  0.6763628646021096  0.6295414394883371
  0.4986195342626456  0.1772128615362616  0.1297205708625837
  0.5012384790043000  0.1790229533979228  0.6227424431089501
  0.4972602001802847  0.6791824014307164  0.1236037522437827
  0.5030843382883611  0.6779511646426835  0.6284158723766060
  0.3211311232577932  0.9986192430560692  0.3770447690817945
  0.3229624777802945  1.0016464871896977  0.8703594816781856
  0.3238969165899511  0.5077312138061356  0.3749627348709809
  0.3233829523545808  0.4922136245048323  0.8607200914940714
  0.8219437665659763  0.9968674175826838  0.3715752502029817
  0.8206551578685163  0.0026534957586784  0.8763887609783270
  0.8236764739185591  0.5009138608697550  0.3706593546995735
  0.8190401806583214  0.4991702682502838  0.8747942941062816
  0.2070795952741334  0.2070912363964632  0.4284864303361957
  0.1785687813786802  0.1785936608825229  0.8611156501022722
  0.1774285853058892  0.6797591194971467  0.3723670935657645
  0.1805247929733711  0.6763346224191853  0.8742267416474169
  0.6799913249648261  0.1776504237442823  0.3726860245138214
  0.6760166462066962  0.1802710182141999  0.8739134982160701
  0.6756083203078312  0.6756734092075615  0.3687358233651230
  0.6812994588181152  0.6812021092844464  0.8769825877794267
  0.9987510846687766  0.3210773035525246  0.3771532665004849
  1.0013338885227161  0.3226821717251904  0.8704661323519685
  0.9969399360070934  0.8220894990697325  0.3714709134819864
  0.0027857638810770  0.8208387232236575  0.8763617419613090
  0.5077283527919684  0.3238154988229862  0.3751778415778105
  0.4923013415116548  0.3235563246182229  0.8605698558813946
  0.5006872322842694  0.8236830224288137  0.3704232612175751
  0.4992536394074762  0.8189011833446670  0.8749528035715415
 
  0.00000000E+00  0.00000000E+00  0.00000000E+00
  0.00000000E+00  0.00000000E+00  0.00000000E+00
  0.00000000E+00  0.00000000E+00  0.00000000E+00
  0.00000000E+00  0.00000000E+00  0.00000000E+00
  0.00000000E+00  0.00000000E+00  0.00000000E+00
  0.00000000E+00  0.00000000E+00  0.00000000E+00
  0.00000000E+00  0.00000000E+00  0.00000000E+00
  0.00000000E+00  0.00000000E+00  0.00000000E+00
  0.00000000E+00  0.00000000E+00  0.00000000E+00
  0.00000000E+00  0.00000000E+00  0.00000000E+00
  0.00000000E+00  0.00000000E+00  0.00000000E+00
  0.00000000E+00  0.00000000E+00  0.00000000E+00
  0.00000000E+00  0.00000000E+00  0.00000000E+00
  0.00000000E+00  0.00000000E+00  0.00000000E+00
  0.00000000E+00  0.00000000E+00  0.00000000E+00
  0.00000000E+00  0.00000000E+00  0.00000000E+00
  0.00000000E+00  0.00000000E+00  0.00000000E+00
  0.00000000E+00  0.00000000E+00  0.00000000E+00
  0.00000000E+00  0.00000000E+00  0.00000000E+00
  0.00000000E+00  0.00000000E+00  0.00000000E+00
  0.00000000E+00  0.00000000E+00  0.00000000E+00
  0.00000000E+00  0.00000000E+00  0.00000000E+00
  0.00000000E+00  0.00000000E+00  0.00000000E+00
  0.00000000E+00  0.00000000E+00  0.00000000E+00
  0.00000000E+00  0.00000000E+00  0.00000000E+00
  0.00000000E+00  0.00000000E+00  0.00000000E+00
  0.00000000E+00  0.00000000E+00  0.00000000E+00
  0.00000000E+00  0.00000000E+00  0.00000000E+00
  0.00000000E+00  0.00000000E+00  0.00000000E+00
  0.00000000E+00  0.00000000E+00  0.00000000E+00
  0.00000000E+00  0.00000000E+00  0.00000000E+00
  0.00000000E+00  0.00000000E+00  0.00000000E+00
  0.00000000E+00  0.00000000E+00  0.00000000E+00
  0.00000000E+00  0.00000000E+00  0.00000000E+00
  0.00000000E+00  0.00000000E+00  0.00000000E+00
  0.00000000E+00  0.00000000E+00  0.00000000E+00
  0.00000000E+00  0.00000000E+00  0.00000000E+00
  0.00000000E+00  0.00000000E+00  0.00000000E+00
  0.00000000E+00  0.00000000E+00  0.00000000E+00
  0.00000000E+00  0.00000000E+00  0.00000000E+00
  0.00000000E+00  0.00000000E+00  0.00000000E+00
  0.00000000E+00  0.00000000E+00  0.00000000E+00
  0.00000000E+00  0.00000000E+00  0.00000000E+00
  0.00000000E+00  0.00000000E+00  0.00000000E+00
  0.00000000E+00  0.00000000E+00  0.00000000E+00
  0.00000000E+00  0.00000000E+00  0.00000000E+00
  0.00000000E+00  0.00000000E+00  0.00000000E+00
  0.00000000E+00  0.00000000E+00  0.00000000E+00
  0.00000000E+00  0.00000000E+00  0.00000000E+00
  0.00000000E+00  0.00000000E+00  0.00000000E+00
  0.00000000E+00  0.00000000E+00  0.00000000E+00
  0.00000000E+00  0.00000000E+00  0.00000000E+00
  0.00000000E+00  0.00000000E+00  0.00000000E+00
  0.00000000E+00  0.00000000E+00  0.00000000E+00
  0.00000000E+00  0.00000000E+00  0.00000000E+00
  0.00000000E+00  0.00000000E+00  0.00000000E+00
  0.00000000E+00  0.00000000E+00  0.00000000E+00
  0.00000000E+00  0.00000000E+00  0.00000000E+00
  0.00000000E+00  0.00000000E+00  0.00000000E+00
  0.00000000E+00  0.00000000E+00  0.00000000E+00
  0.00000000E+00  0.00000000E+00  0.00000000E+00
  0.00000000E+00  0.00000000E+00  0.00000000E+00
  0.00000000E+00  0.00000000E+00  0.00000000E+00
  0.00000000E+00  0.00000000E+00  0.00000000E+00
  0.00000000E+00  0.00000000E+00  0.00000000E+00
  0.00000000E+00  0.00000000E+00  0.00000000E+00
  0.00000000E+00  0.00000000E+00  0.00000000E+00
  0.00000000E+00  0.00000000E+00  0.00000000E+00
  0.00000000E+00  0.00000000E+00  0.00000000E+00
  0.00000000E+00  0.00000000E+00  0.00000000E+00
  0.00000000E+00  0.00000000E+00  0.00000000E+00
  0.00000000E+00  0.00000000E+00  0.00000000E+00
