Li8 Mn16 O48
1.0
9.996316 0.000009 0.001784
-4.998165 8.657059 -0.002284
-0.001468 0.001322 8.225567
Li Mn O
8 16 48
direct
0.003698 0.003686 0.000287 Li
-0.008240 -0.008217 0.505165 Li
0.000013 0.500054 0.000007 Li
-0.001252 0.501113 0.499973 Li
0.499987 -0.000054 -0.000007 Li
0.501252 -0.001113 0.500027 Li
0.496302 0.496314 -0.000287 Li
0.508240 0.508217 0.494835 Li
0.169461 0.341824 0.256547 Mn
0.158137 0.330566 0.743473 Mn
0.166373 0.836198 0.250578 Mn
0.165157 0.827698 0.751140 Mn
0.672320 0.334838 0.248799 Mn
0.663791 0.333649 0.749521 Mn
0.667209 0.833720 0.244962 Mn
0.666322 0.832780 0.755036 Mn
0.341863 0.169434 0.256527 Mn
0.330539 0.158176 0.743453 Mn
0.334843 0.672302 0.248860 Mn
0.333627 0.663802 0.749422 Mn
0.836209 0.166351 0.250479 Mn
0.827680 0.165162 0.751201 Mn
0.833678 0.667220 0.244964 Mn
0.832791 0.666280 0.755038 Mn
0.324439 0.324403 0.141270 O
0.299429 0.299501 0.584489 O
0.321051 0.825465 0.126009 O
0.321650 0.819002 0.628350 O
0.825514 0.321102 0.125938 O
0.818874 0.321579 0.628356 O
0.819823 0.819817 0.120238 O
0.821944 0.821944 0.633193 O
0.178493 1.008959 0.138167 O
0.174570 0.991015 0.624665 O
0.178286 0.500289 0.130423 O
0.177809 0.500766 0.622984 O
0.683231 1.002578 0.122928 O
0.674400 0.997464 0.631353 O
0.680595 0.498164 0.122178 O
0.676720 0.502338 0.630355 O
0.008996 0.178573 0.137997 O
-0.008990 0.174648 0.624731 O
0.002621 0.683261 0.123080 O
-0.002639 0.674326 0.631291 O
0.500225 0.178300 0.130369 O
0.500749 0.178025 0.622956 O
0.498192 0.680576 0.122279 O
0.502298 0.676744 0.630330 O
0.322191 -0.000766 0.377016 O
0.321714 -0.000289 0.869577 O
0.325430 0.508985 0.375335 O
0.321507 0.491041 0.861833 O
0.823280 -0.002338 0.369645 O
0.819405 0.001836 0.877822 O
0.825600 0.502536 0.368647 O
0.816769 0.497422 0.877072 O
0.200571 0.200499 0.415511 O
0.175561 0.175597 0.858730 O
0.178350 0.680998 0.371650 O
0.178949 0.674535 0.873991 O
0.681126 0.178421 0.371644 O
0.674486 0.178898 0.874062 O
0.678056 0.678056 0.366807 O
0.680177 0.680183 0.879762 O
0.999251 0.321975 0.377044 O
0.999775 0.321700 0.869631 O
0.997702 0.823256 0.369670 O
1.001808 0.819424 0.877721 O
0.508990 0.325352 0.375269 O
0.491004 0.321427 0.862003 O
0.502639 0.825674 0.368709 O
0.497379 0.816739 0.876920 O
