Li8 Mn16 O48                            
   1.00000000000000     
     9.9963160000000002    0.0000090000000000    0.0017840000000000
    -4.9981650000000002    8.6570590000000003   -0.0022840000000000
    -0.0014680000000000    0.0013220000000000    8.2255669999999999
   Li   Mn   O 
     8    16    48
Direct
  0.0032314468124944  0.0032507191364515  0.0005385640510882
  0.9917009288543041  0.9917222866739694  0.5061789251176587
 -0.0004774861426126  0.5004614463213587  0.0000021491080019
  0.9987841819313796  0.5012678768652992  0.5000061836936638
  0.5004852681088261  0.9995424454142351  1.0000054486954337
  0.5012080708852398  0.9987133332648706  0.4999769464405699
  0.4967748293028754  0.4967711378133935  0.9994694838827540
  0.5082976434547551  0.5082920384029376  0.4938015907946249
  0.1692233026909911  0.3436623379277608  0.2573699801731674
  0.1563398527026445  0.3307387990908192  0.7426447506876764
  0.1655033935640405  0.8358750419710141  0.2514122709738367
  0.1653757587034983  0.8268927006638044  0.7509238286994403
  0.6731023664022422  0.3346819923810059  0.2491142933899714
  0.6641461382355106  0.3344797218209884  0.7485379082910230
  0.6667717487492856  0.8330577764468746  0.2462659485498189
  0.6669652564197265  0.8332040546145733  0.7537330461456496
  0.3436510234585304  0.1692574049219202  0.2573904310595745
  0.3307626790477897  0.1563318615256991  0.7426279223997698
  0.3346398387881573  0.6731015168149728  0.2490634655837085
  0.3345024959477688  0.6641217484952348  0.7485796360946827
  0.8358378592459913  0.1655265889608395  0.2514744980869246
  0.8268943096471413  0.1653293908154593  0.7508843759643509
  0.8330415235466774  0.6668031062691208  0.2462271788148704
  0.8332424586978279  0.6669460674682537  0.7537473114054594
  0.3230401016113357  0.3230548769472468  0.1435318174863283
  0.2925193886410498  0.2925199838585273  0.5699289577478741
  0.3201087839242451  0.8252724070613628  0.1256476586361161
  0.3218577135107885  0.8189024735858172  0.6276547771264760
  0.8252548690209468  0.3201178108733559  0.1256842484193761
  0.8189392426920606  0.3218412595853616  0.6276344873308057
  0.8194999497685008  0.8195322825466872  0.1219203890071077
  0.8225744260324295  0.8225415839053443  0.6317572722951674
  0.1772733314927941  0.0098821507530853  0.1413951590900188
  0.1752481984414348  0.9899754784348023  0.6241732041761306
  0.1781824719384112  0.4998242036204840  0.1299047913076797
  0.1777074312639423  0.5013339457344860  0.6223965756798197
  0.6827426158884659  0.0017905132481675  0.1242490534570500
  0.6744167928142116  0.9978211784432701  0.6304698552468823
  0.6802064201122199  0.4977869547726007  0.1231998548208875
  0.6772492083473224  0.5027593532764413  0.6286160957631390
  0.0098215216405143  0.1772480104734854  0.1414539835680652
  0.9900014499513078  0.1752469981874778  0.6241590002586965
  0.0017712019372783  0.6827773854153996  0.1241775706270716
  0.9978718520351961  0.6743813729389365  0.6305525216828526
  0.4998269887146147  0.1781865806402148  0.1299797916503613
  0.5013403559209012  0.1776555807896640  0.6223804906400059
  0.4977826886816162  0.6802240967787138  0.1231849146317391
  0.5027625766335734  0.6771869535463978  0.6286566432953372
  0.3222866258514918  0.9986374613182795  0.3776253554243499
  0.3218317488932568  1.0001715607732100  0.8700643629046164
  0.3247620652916191  0.5100156618785184  0.3758144057266657
  0.3227182301604518  0.4901277130939426  0.8586329590792230
  0.8227302905836117  0.9972491016042773  0.3714216274876463
  0.8198021124568202  0.0022128619452490  0.8767709340540295
  0.8256009615995832  0.5021953693373656  0.3694953328285845
  0.8172510324887126  0.4982033980341182  0.8757605439572591
  0.2074539001406988  0.2074671768052187  0.4300711858214332
  0.1769829747208017  0.1769635917825334  0.8565071412880152
  0.1781161735672175  0.6810562857444484  0.3723020878931761
  0.1799180459190496  0.6747459062890789  0.8743602872996595
  0.6810595030581360  0.1781728631964688  0.3723840476128471
  0.6747255784529310  0.1798684216854360  0.8743076910349141
  0.6774350887608552  0.6774516340427690  0.3682263804877698
  0.6805134986607237  0.6804887627886069  0.8780684139547853
  0.9986373521659795  0.3223653349402782  0.3776165456063500
  1.0001505858703057  0.3217770760786115  0.8700623053244022
  0.9972362206091441  0.8228327769706486  0.3713019749195235
  0.0022489422047343  0.8197773615966879  0.8768327061702070
  0.5100018477453155  0.3247745593020242  0.3758500805862809
  0.4901633809023822  0.3227411449618660  0.8585735386816701
  0.5021236737921506  0.8255701157228955  0.3694827923344940
  0.4982456960578865  0.8172390306100511  0.8757820474731316
 
  0.00000000E+00  0.00000000E+00  0.00000000E+00
  0.00000000E+00  0.00000000E+00  0.00000000E+00
  0.00000000E+00  0.00000000E+00  0.00000000E+00
  0.00000000E+00  0.00000000E+00  0.00000000E+00
  0.00000000E+00  0.00000000E+00  0.00000000E+00
  0.00000000E+00  0.00000000E+00  0.00000000E+00
  0.00000000E+00  0.00000000E+00  0.00000000E+00
  0.00000000E+00  0.00000000E+00  0.00000000E+00
  0.00000000E+00  0.00000000E+00  0.00000000E+00
  0.00000000E+00  0.00000000E+00  0.00000000E+00
  0.00000000E+00  0.00000000E+00  0.00000000E+00
  0.00000000E+00  0.00000000E+00  0.00000000E+00
  0.00000000E+00  0.00000000E+00  0.00000000E+00
  0.00000000E+00  0.00000000E+00  0.00000000E+00
  0.00000000E+00  0.00000000E+00  0.00000000E+00
  0.00000000E+00  0.00000000E+00  0.00000000E+00
  0.00000000E+00  0.00000000E+00  0.00000000E+00
  0.00000000E+00  0.00000000E+00  0.00000000E+00
  0.00000000E+00  0.00000000E+00  0.00000000E+00
  0.00000000E+00  0.00000000E+00  0.00000000E+00
  0.00000000E+00  0.00000000E+00  0.00000000E+00
  0.00000000E+00  0.00000000E+00  0.00000000E+00
  0.00000000E+00  0.00000000E+00  0.00000000E+00
  0.00000000E+00  0.00000000E+00  0.00000000E+00
  0.00000000E+00  0.00000000E+00  0.00000000E+00
  0.00000000E+00  0.00000000E+00  0.00000000E+00
  0.00000000E+00  0.00000000E+00  0.00000000E+00
  0.00000000E+00  0.00000000E+00  0.00000000E+00
  0.00000000E+00  0.00000000E+00  0.00000000E+00
  0.00000000E+00  0.00000000E+00  0.00000000E+00
  0.00000000E+00  0.00000000E+00  0.00000000E+00
  0.00000000E+00  0.00000000E+00  0.00000000E+00
  0.00000000E+00  0.00000000E+00  0.00000000E+00
  0.00000000E+00  0.00000000E+00  0.00000000E+00
  0.00000000E+00  0.00000000E+00  0.00000000E+00
  0.00000000E+00  0.00000000E+00  0.00000000E+00
  0.00000000E+00  0.00000000E+00  0.00000000E+00
  0.00000000E+00  0.00000000E+00  0.00000000E+00
  0.00000000E+00  0.00000000E+00  0.00000000E+00
  0.00000000E+00  0.00000000E+00  0.00000000E+00
  0.00000000E+00  0.00000000E+00  0.00000000E+00
  0.00000000E+00  0.00000000E+00  0.00000000E+00
  0.00000000E+00  0.00000000E+00  0.00000000E+00
  0.00000000E+00  0.00000000E+00  0.00000000E+00
  0.00000000E+00  0.00000000E+00  0.00000000E+00
  0.00000000E+00  0.00000000E+00  0.00000000E+00
  0.00000000E+00  0.00000000E+00  0.00000000E+00
  0.00000000E+00  0.00000000E+00  0.00000000E+00
  0.00000000E+00  0.00000000E+00  0.00000000E+00
  0.00000000E+00  0.00000000E+00  0.00000000E+00
  0.00000000E+00  0.00000000E+00  0.00000000E+00
  0.00000000E+00  0.00000000E+00  0.00000000E+00
  0.00000000E+00  0.00000000E+00  0.00000000E+00
  0.00000000E+00  0.00000000E+00  0.00000000E+00
  0.00000000E+00  0.00000000E+00  0.00000000E+00
  0.00000000E+00  0.00000000E+00  0.00000000E+00
  0.00000000E+00  0.00000000E+00  0.00000000E+00
  0.00000000E+00  0.00000000E+00  0.00000000E+00
  0.00000000E+00  0.00000000E+00  0.00000000E+00
  0.00000000E+00  0.00000000E+00  0.00000000E+00
  0.00000000E+00  0.00000000E+00  0.00000000E+00
  0.00000000E+00  0.00000000E+00  0.00000000E+00
  0.00000000E+00  0.00000000E+00  0.00000000E+00
  0.00000000E+00  0.00000000E+00  0.00000000E+00
  0.00000000E+00  0.00000000E+00  0.00000000E+00
  0.00000000E+00  0.00000000E+00  0.00000000E+00
  0.00000000E+00  0.00000000E+00  0.00000000E+00
  0.00000000E+00  0.00000000E+00  0.00000000E+00
  0.00000000E+00  0.00000000E+00  0.00000000E+00
  0.00000000E+00  0.00000000E+00  0.00000000E+00
  0.00000000E+00  0.00000000E+00  0.00000000E+00
  0.00000000E+00  0.00000000E+00  0.00000000E+00
