Li8 Mn16 O48
1.0
9.996316 0.000009 0.001784
-4.998165 8.657059 -0.002284
-0.001468 0.001322 8.225567
Li Mn O
8 16 48
direct
0.004315 0.004301 0.000335 Li
-0.009613 -0.009587 0.506025 Li
0.000015 0.500062 0.000008 Li
-0.001460 0.501298 0.499968 Li
0.499985 -0.000062 -0.000008 Li
0.501460 -0.001298 0.500032 Li
0.495685 0.495699 -0.000335 Li
0.509613 0.509587 0.493975 Li
0.169926 0.343239 0.257639 Mn
0.156715 0.330105 0.742385 Mn
0.166324 0.836675 0.250674 Mn
0.164905 0.826759 0.751331 Mn
0.673262 0.335089 0.248599 Mn
0.663312 0.333702 0.749441 Mn
0.667299 0.833785 0.244122 Mn
0.666264 0.832687 0.755876 Mn
0.343285 0.169895 0.257615 Mn
0.330074 0.156761 0.742361 Mn
0.335095 0.673241 0.248669 Mn
0.333676 0.663325 0.749326 Mn
0.836688 0.166298 0.250559 Mn
0.826738 0.164911 0.751401 Mn
0.833736 0.667313 0.244124 Mn
0.832701 0.666215 0.755878 Mn
0.324936 0.324894 0.143626 O
0.295757 0.295842 0.577381 O
0.320983 0.826133 0.125821 O
0.321682 0.818592 0.628552 O
0.826190 0.321043 0.125738 O
0.818443 0.321599 0.628559 O
0.819551 0.819543 0.119089 O
0.822025 0.822025 0.634203 O
0.178485 1.010452 0.140006 O
0.173909 0.989518 0.624254 O
0.178244 0.500337 0.130971 O
0.177687 0.500893 0.622292 O
0.684013 1.003008 0.122227 O
0.673709 0.997041 0.632056 O
0.680937 0.497858 0.121352 O
0.676416 0.502728 0.630891 O
0.010495 0.178579 0.139807 O
-0.010488 0.174000 0.624330 O
0.003057 0.684048 0.122404 O
-0.003079 0.673624 0.631983 O
0.500262 0.178260 0.130908 O
0.500874 0.177939 0.622259 O
0.497890 0.680916 0.121469 O
0.502682 0.676445 0.630862 O
0.322313 -0.000893 0.377708 O
0.321756 -0.000337 0.869029 O
0.326091 0.510482 0.375746 O
0.321515 0.489548 0.859994 O
0.823584 -0.002728 0.369109 O
0.819063 0.002142 0.878648 O
0.826291 0.502959 0.367944 O
0.815987 0.496992 0.877773 O
0.204243 0.204158 0.422619 O
0.175064 0.175106 0.856374 O
0.178318 0.681408 0.371448 O
0.179017 0.673867 0.874179 O
0.681557 0.178401 0.371441 O
0.673810 0.178957 0.874262 O
0.677975 0.677975 0.365797 O
0.680449 0.680457 0.880911 O
0.999126 0.322061 0.377741 O
0.999738 0.321740 0.869092 O
0.997318 0.823555 0.369138 O
1.002110 0.819084 0.878531 O
0.510488 0.326000 0.375670 O
0.489505 0.321421 0.860193 O
0.503079 0.826376 0.368017 O
0.496943 0.815952 0.877596 O
