Li8 Mn16 O48                            
   1.00000000000000     
     9.9963160000000002    0.0000090000000000    0.0017840000000000
    -4.9981650000000002    8.6570590000000003   -0.0022840000000000
    -0.0014680000000000    0.0013220000000000    8.2255669999999999
   Li   Mn   O 
     8    16    48
Direct
  0.0007173652796762  0.0007299588781119  0.0000622416876003
  0.9992596626165480  0.9992992797554704  0.5001201583234556
  0.0002722761627716  0.4997624089424225 -0.0000049896043130
  0.9997264186802702  0.5002663994566955  0.5000291345937196
  0.4997345100323374  1.0002435642438587  0.9999988569683965
  0.5002678564263735  0.9997264664961533  0.4999772743269215
  0.4992878480012295  0.4992778259266075  0.9999444941782880
  0.5007433315102747  0.5007020766932845  0.4998756646152999
  0.1676281916465766  0.3343165971755894  0.2525332493937060
  0.1657271406889139  0.3323734675911310  0.7474547372830469
  0.1659537245102918  0.8343133584130971  0.2501322356315328
  0.1673555144450875  0.8323351050555403  0.7499311119217911
  0.6676284074747580  0.3326362342904734  0.2500832343675921
  0.6656890108712766  0.3340173926840150  0.7499193645409972
  0.6660064929717298  0.8326795072186400  0.2477502017726767
  0.6673540481139385  0.8339881980176883  0.7522074513389819
  0.3342710448097703  0.1676296793685629  0.2525594230192096
  0.3323658151263482  0.1656862400362670  0.7474704272187810
  0.3326513785485172  0.6676692256620799  0.2500680775214763
  0.3340490316155850  0.6656886116018954  0.7498752585050796
  0.8343043826510820  0.1659808441692960  0.2500724383184711
  0.8323656260708219  0.1673583056935119  0.7499151726333710
  0.8326521776751635  0.6660050312115199  0.2477879213923445
  0.8340018019268550  0.6673178787832420  0.7522484798361198
  0.3238247427566762  0.3238241320366486  0.1309212758395298
  0.3194186246856400  0.3193912098776987  0.6232408026053412
  0.3208455925970619  0.8225303766628079  0.1271073659672626
  0.3221246765181902  0.8204897635054456  0.6268152852231526
  0.8224886566255182  0.3208623114212405  0.1270740242270883
  0.8205257220073543  0.3221603307535990  0.6268757468739012
  0.8198240094734146  0.8198219197113739  0.1237504033929310
  0.8232932108219457  0.8232573024184220  0.6303214256943549
  0.1786023934765044  0.0022418580792265  0.1289250969747373
  0.1783820179277832  0.9977583979411057  0.6250727688164491
  0.1773973734789396  0.4996833372542681  0.1288588271016614
  0.1796210101237913  0.5003368712808812  0.6250801100190290
  0.6798654226792165  0.0005874465859630  0.1252661563232831
  0.6771832571585725  0.9994278833984162  0.6286595977611001
  0.6785648277481857  0.4981135878901995  0.1253300143972392
  0.6784584544385057  0.5019005063318400  0.6286001267723613
  0.0022369891608426  0.1786722494847085  0.1288583718852797
  0.9977869682496774  0.1784081086975826  0.6250552440929469
  0.0005676334654174  0.6798408477658144  0.1253249597669289
  0.9994272879508362  0.6771178548240582  0.6287210843307309
  0.4996278647955422  0.1773516698077034  0.1288859552936465
  0.5003485454817739  0.1795741708409205  0.6251353090916417
  0.4981172869287239  0.6786161921035688  0.1252710503240022
  0.5019273269638127  0.6784452472568299  0.6285782466360426
  0.3203771064056524  0.9996617398046294  0.3749236226910316
  0.3226095817809671  1.0003216159574746  0.8711336859284833
  0.3216093040081233  0.5022401734718297  0.3749343404045579
  0.3213904132384624  0.4977725526171608  0.8711080815211739
  0.8215380165052556  0.9980966594739986  0.3714013761092905
  0.8214381143139743  0.0018805904240614  0.8746563156134117
  0.8228214344721677  0.5005695577712214  0.3713467976973453
  0.8201396230623033  0.4994072439383924  0.8747250805285578
  0.1805644762248487  0.1806056848919520  0.3767667978425245
  0.1761997628127007  0.1761951743356976  0.8690984478349665
  0.1778728090573067  0.6795044346307451  0.3731765130899158
  0.1791620770497771  0.6774785348374810  0.8728937894646470
  0.6794581349282464  0.1778261773209903  0.3731142671683915
  0.6774968707582120  0.1791258625924450  0.8729124172041076
  0.6767113994996338  0.6767354959873847  0.3696683274680644
  0.6801792896034290  0.6801684177353892  0.8762489580915673
  0.9996415638511756  0.3204245307878851  0.3748644225329849
  1.0003575539580198  0.3226496743307786  0.8711060718278102
  0.9980703531889344  0.8215437798699955  0.3714279856226756
  0.0018861361200164  0.8213830119373305  0.8747302766724960
  0.5022159314673478  0.3215946401804802  0.3749528266050537
  0.4977579956828668  0.3213360437708673  0.8711305256945695
  0.5005869229347820  0.8228948599026837  0.3712694739756627
  0.4994421757104386  0.8201663101338676  0.8746687292147508
 
  0.00000000E+00  0.00000000E+00  0.00000000E+00
  0.00000000E+00  0.00000000E+00  0.00000000E+00
  0.00000000E+00  0.00000000E+00  0.00000000E+00
  0.00000000E+00  0.00000000E+00  0.00000000E+00
  0.00000000E+00  0.00000000E+00  0.00000000E+00
  0.00000000E+00  0.00000000E+00  0.00000000E+00
  0.00000000E+00  0.00000000E+00  0.00000000E+00
  0.00000000E+00  0.00000000E+00  0.00000000E+00
  0.00000000E+00  0.00000000E+00  0.00000000E+00
  0.00000000E+00  0.00000000E+00  0.00000000E+00
  0.00000000E+00  0.00000000E+00  0.00000000E+00
  0.00000000E+00  0.00000000E+00  0.00000000E+00
  0.00000000E+00  0.00000000E+00  0.00000000E+00
  0.00000000E+00  0.00000000E+00  0.00000000E+00
  0.00000000E+00  0.00000000E+00  0.00000000E+00
  0.00000000E+00  0.00000000E+00  0.00000000E+00
  0.00000000E+00  0.00000000E+00  0.00000000E+00
  0.00000000E+00  0.00000000E+00  0.00000000E+00
  0.00000000E+00  0.00000000E+00  0.00000000E+00
  0.00000000E+00  0.00000000E+00  0.00000000E+00
  0.00000000E+00  0.00000000E+00  0.00000000E+00
  0.00000000E+00  0.00000000E+00  0.00000000E+00
  0.00000000E+00  0.00000000E+00  0.00000000E+00
  0.00000000E+00  0.00000000E+00  0.00000000E+00
  0.00000000E+00  0.00000000E+00  0.00000000E+00
  0.00000000E+00  0.00000000E+00  0.00000000E+00
  0.00000000E+00  0.00000000E+00  0.00000000E+00
  0.00000000E+00  0.00000000E+00  0.00000000E+00
  0.00000000E+00  0.00000000E+00  0.00000000E+00
  0.00000000E+00  0.00000000E+00  0.00000000E+00
  0.00000000E+00  0.00000000E+00  0.00000000E+00
  0.00000000E+00  0.00000000E+00  0.00000000E+00
  0.00000000E+00  0.00000000E+00  0.00000000E+00
  0.00000000E+00  0.00000000E+00  0.00000000E+00
  0.00000000E+00  0.00000000E+00  0.00000000E+00
  0.00000000E+00  0.00000000E+00  0.00000000E+00
  0.00000000E+00  0.00000000E+00  0.00000000E+00
  0.00000000E+00  0.00000000E+00  0.00000000E+00
  0.00000000E+00  0.00000000E+00  0.00000000E+00
  0.00000000E+00  0.00000000E+00  0.00000000E+00
  0.00000000E+00  0.00000000E+00  0.00000000E+00
  0.00000000E+00  0.00000000E+00  0.00000000E+00
  0.00000000E+00  0.00000000E+00  0.00000000E+00
  0.00000000E+00  0.00000000E+00  0.00000000E+00
  0.00000000E+00  0.00000000E+00  0.00000000E+00
  0.00000000E+00  0.00000000E+00  0.00000000E+00
  0.00000000E+00  0.00000000E+00  0.00000000E+00
  0.00000000E+00  0.00000000E+00  0.00000000E+00
  0.00000000E+00  0.00000000E+00  0.00000000E+00
  0.00000000E+00  0.00000000E+00  0.00000000E+00
  0.00000000E+00  0.00000000E+00  0.00000000E+00
  0.00000000E+00  0.00000000E+00  0.00000000E+00
  0.00000000E+00  0.00000000E+00  0.00000000E+00
  0.00000000E+00  0.00000000E+00  0.00000000E+00
  0.00000000E+00  0.00000000E+00  0.00000000E+00
  0.00000000E+00  0.00000000E+00  0.00000000E+00
  0.00000000E+00  0.00000000E+00  0.00000000E+00
  0.00000000E+00  0.00000000E+00  0.00000000E+00
  0.00000000E+00  0.00000000E+00  0.00000000E+00
  0.00000000E+00  0.00000000E+00  0.00000000E+00
  0.00000000E+00  0.00000000E+00  0.00000000E+00
  0.00000000E+00  0.00000000E+00  0.00000000E+00
  0.00000000E+00  0.00000000E+00  0.00000000E+00
  0.00000000E+00  0.00000000E+00  0.00000000E+00
  0.00000000E+00  0.00000000E+00  0.00000000E+00
  0.00000000E+00  0.00000000E+00  0.00000000E+00
  0.00000000E+00  0.00000000E+00  0.00000000E+00
  0.00000000E+00  0.00000000E+00  0.00000000E+00
  0.00000000E+00  0.00000000E+00  0.00000000E+00
  0.00000000E+00  0.00000000E+00  0.00000000E+00
  0.00000000E+00  0.00000000E+00  0.00000000E+00
  0.00000000E+00  0.00000000E+00  0.00000000E+00
