Li8 Mn16 O48
1.0
9.996316 0.000009 0.001784
-4.998165 8.657059 -0.002284
-0.001468 0.001322 8.225567
Li Mn O
8 16 48
direct
0.000616 0.000614 0.000048 Li
-0.001373 -0.001370 0.500861 Li
0.000002 0.500009 0.000001 Li
-0.000209 0.500185 0.499995 Li
0.499998 -0.000009 -0.000001 Li
0.500209 -0.000185 0.500005 Li
0.499384 0.499386 -0.000048 Li
0.501373 0.501370 0.499139 Li
0.167133 0.334748 0.251091 Mn
0.165246 0.332872 0.748912 Mn
0.166618 0.833811 0.250096 Mn
0.166416 0.832394 0.750190 Mn
0.667610 0.333584 0.249799 Mn
0.666188 0.333386 0.749920 Mn
0.666758 0.833398 0.249160 Mn
0.666610 0.833241 0.750839 Mn
0.334754 0.167128 0.251088 Mn
0.332867 0.165252 0.748909 Mn
0.333584 0.667606 0.249810 Mn
0.333382 0.666189 0.749904 Mn
0.833812 0.166614 0.250080 Mn
0.832390 0.166416 0.750201 Mn
0.833390 0.666759 0.249161 Mn
0.833242 0.666602 0.750840 Mn
0.321957 0.321951 0.129491 O
0.317788 0.317800 0.620027 O
0.321392 0.822128 0.126947 O
0.321492 0.821050 0.627337 O
0.822136 0.321401 0.126935 O
0.821029 0.321480 0.627338 O
0.821187 0.821186 0.125985 O
0.821541 0.821541 0.628145 O
0.178532 1.001493 0.128974 O
0.177878 0.998503 0.626723 O
0.178498 0.500048 0.127683 O
0.178418 0.500128 0.626443 O
0.679322 1.000430 0.126434 O
0.677850 0.999577 0.627838 O
0.678882 0.499694 0.126309 O
0.678236 0.500390 0.627672 O
0.001499 0.178545 0.128945 O
-0.001498 0.177891 0.626734 O
0.000437 0.679327 0.126459 O
-0.000440 0.677838 0.627828 O
0.500037 0.178500 0.127674 O
0.500125 0.178454 0.626438 O
0.499699 0.678879 0.126326 O
0.500383 0.678241 0.627667 O
0.321582 -0.000128 0.373557 O
0.321502 -0.000048 0.872317 O
0.322122 0.501497 0.373277 O
0.321468 0.498507 0.871026 O
0.821764 -0.000390 0.372328 O
0.821118 0.000306 0.873691 O
0.822150 0.500423 0.372162 O
0.820678 0.499570 0.873566 O
0.182212 0.182200 0.379973 O
0.178043 0.178049 0.870509 O
0.178508 0.678950 0.372663 O
0.178608 0.677872 0.873053 O
0.678971 0.178520 0.372662 O
0.677864 0.178599 0.873065 O
0.678459 0.678459 0.371855 O
0.678813 0.678814 0.874015 O
0.999875 0.321546 0.373562 O
0.999963 0.321500 0.872326 O
0.999617 0.821759 0.372333 O
1.000301 0.821121 0.873674 O
0.501498 0.322109 0.373266 O
0.498501 0.321455 0.871055 O
0.500440 0.822162 0.372172 O
0.499563 0.820673 0.873541 O
