Li8 Mn16 O48                            
   1.00000000000000     
     9.9963160000000002    0.0000090000000000    0.0017840000000000
    -4.9981650000000002    8.6570590000000003   -0.0022840000000000
    -0.0014680000000000    0.0013220000000000    8.2255669999999999
   Li   Mn   O 
     8    16    48
Direct
  0.0019294686779147  0.0019912945766690  0.0011674894316687
  0.9968019792049839  0.9969126274808190  0.5025996964267649
  0.0001788368778450  0.4997493765125443 -0.0001387910534162
  0.9992606580034666  0.5008787055147289  0.5000871167010782
  0.4997734583347953  1.0002786652002884  0.9999347877140786
  0.5007176806252990  0.9990843626541657  0.5000311245651470
  0.4981870581817542  0.4981378061467003  0.9985543503160706
  0.5031768595950790  0.5030240768193137  0.4975496590489640
  0.1697973810604483  0.3410782304522297  0.2561822657912662
  0.1588154932877741  0.3301770344297059  0.7438454852816575
  0.1655892494789585  0.8354871433758680  0.2513632424473877
  0.1663225738614668  0.8291195716820289  0.7506822707046160
  0.6709540389568891  0.3337843703344370  0.2493611820461357
  0.6645114563719257  0.3343909004009931  0.7484718889613883
  0.6661563330964528  0.8325896767286260  0.2469215781083449
  0.6674053172950083  0.8337451765126609  0.7532062531430114
  0.3411679276416474  0.1698221745649531  0.2562156335273921
  0.3301620219038388  0.1589070960233457  0.7437336679109030
  0.3337173875027905  0.6708711053197753  0.2493238275746898
  0.3344402963747612  0.6644989252841071  0.7486188660612655
  0.8354685988352540  0.1656177448746801  0.2515086787106384
  0.8290229935804582  0.1662159215070229  0.7506671207807163
  0.8325940030772656  0.6662542881679661  0.2467885161329239
  0.8338380116330447  0.6674140199870481  0.7531209982086057
  0.3245390868973925  0.3245215699611287  0.1374305687067134
  0.2982576974218304  0.2983065787965331  0.5844100613192588
  0.3201658639182218  0.8243603971137822  0.1263113158226483
  0.3221537239645456  0.8195568415312154  0.6274623105812887
  0.8243292876385828  0.3201229796836833  0.1263059304359790
  0.8195342218637552  0.3220403137949830  0.6273563771049389
  0.8194447756333022  0.8195442279301163  0.1228332699196244
  0.8235045323499843  0.8235119577636481  0.6313344485208989
  0.1768554502650008  0.0079667893346095  0.1384195865615552
  0.1762588104009496  0.9924221647936093  0.6239793368462162
  0.1770159278454605  0.4984379319592417  0.1304591518400979
  0.1785550858014285  0.5006554538487089  0.6229978891538634
  0.6818361431947408  0.0014463114790244  0.1247334153620848
  0.6755683124499460  0.9986379092175056  0.6301324701803391
  0.6796270121215680  0.4976426281720749  0.1234533542080879
  0.6783933191401240  0.5028593740424266  0.6279347603050230
  0.0078298792344980  0.1766600195877388  0.1386017197633677
  0.9924075900699572  0.1762719327854831  0.6240078321335708
  0.0014343829004397  0.6819974992000882  0.1245366346668132
  0.9987734859905044  0.6756837805979817  0.6301096441747557
  0.4985272611109887  0.1771168526284753  0.1304690685373551
  0.5006166437252849  0.1785572711008805  0.6228490478669204
  0.4976276949546784  0.6796212412315391  0.1234562912484351
  0.5028163005376365  0.6780512629446641  0.6281923726770441
  0.3214159789288838  0.9993072591129420  0.3770411498430982
  0.3229687980310223  1.0015838462424045  0.8694871454628608
  0.3238012241617486  0.5075307339384326  0.3759041894783510
  0.3231482826464654  0.4920396557273935  0.8615798457557974
  0.8216109027881709  0.9971569544456232  0.3720939244225447
  0.8203077046920572  0.0023796400811096  0.8766110620238342
  0.8244528045203756  0.5013652189254234  0.3698306230376376
  0.8180777916868780  0.4985414799846814  0.8753372776343183
  0.2017555572508775  0.2017569448477779  0.4156182309899156
  0.1755425196467691  0.1755401317417641  0.8626048438303975
  0.1778330149177621  0.6803863944720986  0.3724812909725431
  0.1800154436255144  0.6757699338337559  0.8738133132187154
  0.6804345447940209  0.1779253465825971  0.3726410715839941
  0.6755876452003150  0.1798385502863259  0.8736641035991785
  0.6764504216345080  0.6764404596065786  0.3686492431349644
  0.6806123489921583  0.6805373613643786  0.8772259164116045
  0.9993858891134035  0.3214908838686645  0.3770541646286317
  1.0014203316801060  0.3228537945075223  0.8695826327588085
  0.9971753031946341  0.8219368636464011  0.3717878086645532
  0.0024124397713954  0.8203917164783653  0.8765382567646886
  0.5075974974706819  0.3236648454643868  0.3761171680136742
  0.4921118317468656  0.3233323080833111  0.8612960554664739
  0.5012292850065750  0.8241949758799076  0.3700141188614939
  0.4985908656952114  0.8180111168462498  0.8754527969403721
 
  0.00000000E+00  0.00000000E+00  0.00000000E+00
  0.00000000E+00  0.00000000E+00  0.00000000E+00
  0.00000000E+00  0.00000000E+00  0.00000000E+00
  0.00000000E+00  0.00000000E+00  0.00000000E+00
  0.00000000E+00  0.00000000E+00  0.00000000E+00
  0.00000000E+00  0.00000000E+00  0.00000000E+00
  0.00000000E+00  0.00000000E+00  0.00000000E+00
  0.00000000E+00  0.00000000E+00  0.00000000E+00
  0.00000000E+00  0.00000000E+00  0.00000000E+00
  0.00000000E+00  0.00000000E+00  0.00000000E+00
  0.00000000E+00  0.00000000E+00  0.00000000E+00
  0.00000000E+00  0.00000000E+00  0.00000000E+00
  0.00000000E+00  0.00000000E+00  0.00000000E+00
  0.00000000E+00  0.00000000E+00  0.00000000E+00
  0.00000000E+00  0.00000000E+00  0.00000000E+00
  0.00000000E+00  0.00000000E+00  0.00000000E+00
  0.00000000E+00  0.00000000E+00  0.00000000E+00
  0.00000000E+00  0.00000000E+00  0.00000000E+00
  0.00000000E+00  0.00000000E+00  0.00000000E+00
  0.00000000E+00  0.00000000E+00  0.00000000E+00
  0.00000000E+00  0.00000000E+00  0.00000000E+00
  0.00000000E+00  0.00000000E+00  0.00000000E+00
  0.00000000E+00  0.00000000E+00  0.00000000E+00
  0.00000000E+00  0.00000000E+00  0.00000000E+00
  0.00000000E+00  0.00000000E+00  0.00000000E+00
  0.00000000E+00  0.00000000E+00  0.00000000E+00
  0.00000000E+00  0.00000000E+00  0.00000000E+00
  0.00000000E+00  0.00000000E+00  0.00000000E+00
  0.00000000E+00  0.00000000E+00  0.00000000E+00
  0.00000000E+00  0.00000000E+00  0.00000000E+00
  0.00000000E+00  0.00000000E+00  0.00000000E+00
  0.00000000E+00  0.00000000E+00  0.00000000E+00
  0.00000000E+00  0.00000000E+00  0.00000000E+00
  0.00000000E+00  0.00000000E+00  0.00000000E+00
  0.00000000E+00  0.00000000E+00  0.00000000E+00
  0.00000000E+00  0.00000000E+00  0.00000000E+00
  0.00000000E+00  0.00000000E+00  0.00000000E+00
  0.00000000E+00  0.00000000E+00  0.00000000E+00
  0.00000000E+00  0.00000000E+00  0.00000000E+00
  0.00000000E+00  0.00000000E+00  0.00000000E+00
  0.00000000E+00  0.00000000E+00  0.00000000E+00
  0.00000000E+00  0.00000000E+00  0.00000000E+00
  0.00000000E+00  0.00000000E+00  0.00000000E+00
  0.00000000E+00  0.00000000E+00  0.00000000E+00
  0.00000000E+00  0.00000000E+00  0.00000000E+00
  0.00000000E+00  0.00000000E+00  0.00000000E+00
  0.00000000E+00  0.00000000E+00  0.00000000E+00
  0.00000000E+00  0.00000000E+00  0.00000000E+00
  0.00000000E+00  0.00000000E+00  0.00000000E+00
  0.00000000E+00  0.00000000E+00  0.00000000E+00
  0.00000000E+00  0.00000000E+00  0.00000000E+00
  0.00000000E+00  0.00000000E+00  0.00000000E+00
  0.00000000E+00  0.00000000E+00  0.00000000E+00
  0.00000000E+00  0.00000000E+00  0.00000000E+00
  0.00000000E+00  0.00000000E+00  0.00000000E+00
  0.00000000E+00  0.00000000E+00  0.00000000E+00
  0.00000000E+00  0.00000000E+00  0.00000000E+00
  0.00000000E+00  0.00000000E+00  0.00000000E+00
  0.00000000E+00  0.00000000E+00  0.00000000E+00
  0.00000000E+00  0.00000000E+00  0.00000000E+00
  0.00000000E+00  0.00000000E+00  0.00000000E+00
  0.00000000E+00  0.00000000E+00  0.00000000E+00
  0.00000000E+00  0.00000000E+00  0.00000000E+00
  0.00000000E+00  0.00000000E+00  0.00000000E+00
  0.00000000E+00  0.00000000E+00  0.00000000E+00
  0.00000000E+00  0.00000000E+00  0.00000000E+00
  0.00000000E+00  0.00000000E+00  0.00000000E+00
  0.00000000E+00  0.00000000E+00  0.00000000E+00
  0.00000000E+00  0.00000000E+00  0.00000000E+00
  0.00000000E+00  0.00000000E+00  0.00000000E+00
  0.00000000E+00  0.00000000E+00  0.00000000E+00
  0.00000000E+00  0.00000000E+00  0.00000000E+00
