Li8 Mn16 O48
1.0
9.996316 0.000009 0.001784
-4.998165 8.657059 -0.002284
-0.001468 0.001322 8.225567
Li Mn O
8 16 48
direct
0.003082 0.003072 0.000239 Li
-0.006867 -0.006848 0.504304 Li
0.000011 0.500045 0.000006 Li
-0.001043 0.500927 0.499977 Li
0.499989 -0.000045 -0.000006 Li
0.501043 -0.000927 0.500023 Li
0.496918 0.496928 -0.000239 Li
0.506867 0.506848 0.495696 Li
0.168995 0.340409 0.255456 Mn
0.159559 0.331027 0.744561 Mn
0.166422 0.835720 0.250482 Mn
0.165408 0.828637 0.750950 Mn
0.671378 0.334587 0.248999 Mn
0.664271 0.333597 0.749600 Mn
0.667119 0.833656 0.245801 Mn
0.666379 0.832872 0.754197 Mn
0.340441 0.168973 0.255439 Mn
0.331005 0.159591 0.744544 Mn
0.334592 0.671363 0.249050 Mn
0.333578 0.664280 0.749518 Mn
0.835729 0.166403 0.250400 Mn
0.828622 0.165413 0.751001 Mn
0.833621 0.667128 0.245803 Mn
0.832881 0.666344 0.754199 Mn
0.323943 0.323913 0.138914 O
0.303101 0.303161 0.591597 O
0.321119 0.824798 0.126197 O
0.321618 0.819411 0.628147 O
0.824838 0.321162 0.126137 O
0.819305 0.321559 0.628152 O
0.820096 0.820091 0.121388 O
0.821864 0.821863 0.632183 O
0.178500 1.007466 0.136328 O
0.175232 0.992513 0.625077 O
0.178328 0.500241 0.129875 O
0.177931 0.500638 0.623676 O
0.682449 1.002148 0.123629 O
0.675090 0.997886 0.630650 O
0.680252 0.498470 0.123004 O
0.677023 0.501948 0.629818 O
0.007497 0.178568 0.136187 O
-0.007491 0.175297 0.625132 O
0.002184 0.682474 0.123756 O
-0.002199 0.675029 0.630598 O
0.500187 0.178340 0.129830 O
0.500624 0.178111 0.623652 O
0.498493 0.680237 0.123088 O
0.501915 0.677044 0.629797 O
0.322069 -0.000638 0.376324 O
0.321672 -0.000241 0.870125 O
0.324768 0.507487 0.374923 O
0.321500 0.492534 0.863672 O
0.822977 -0.001948 0.370182 O
0.819748 0.001530 0.876996 O
0.824910 0.502114 0.369350 O
0.817551 0.497852 0.876371 O
0.196899 0.196839 0.408403 O
0.176057 0.176087 0.861086 O
0.178382 0.680589 0.371853 O
0.178881 0.675202 0.873803 O
0.680695 0.178441 0.371848 O
0.675162 0.178838 0.873863 O
0.678136 0.678137 0.367817 O
0.679904 0.679909 0.878612 O
0.999376 0.321889 0.376348 O
0.999813 0.321660 0.870170 O
0.998085 0.822956 0.370203 O
1.001507 0.819763 0.876912 O
0.507491 0.324703 0.374868 O
0.492503 0.321432 0.863813 O
0.502199 0.824971 0.369402 O
0.497816 0.817526 0.876244 O
