Li8 Mn16 O48                            
   1.00000000000000     
     9.9963160000000002    0.0000090000000000    0.0017840000000000
    -4.9981650000000002    8.6570590000000003   -0.0022840000000000
    -0.0014680000000000    0.0013220000000000    8.2255669999999999
   Li   Mn   O 
     8    16    48
Direct
  0.0012314544347762  0.0012692192968681  0.0005811045381112
  0.9987583032353812  0.9987210514787886  0.5005123623040546
  0.0004698089766749  0.4995519008782084  0.0000049420339324
  0.9994655509845379  0.5004813417917733  0.4999977372577132
  0.4995247940435300  1.0004728971610655  1.0000019166247189
  0.5005059915600626  0.9994653354090242  0.5000122279717695
  0.4987991419655894  0.4987607000358072  0.9994067997753334
  0.5012416869344464  0.5013045991091405  0.4994614098310815
  0.1689093613505545  0.3354641361851904  0.2556019007686301
  0.1644392726826723  0.3311514284777113  0.7444250398384749
  0.1655510040549473  0.8352854348192675  0.2505992553267319
  0.1677092780092745  0.8312649141747998  0.7503048212929100
  0.6688253862322395  0.3323666867910944  0.2498330191549956
  0.6646310998720408  0.3344092033901315  0.7492007569378746
  0.6656723278162081  0.8323186184003059  0.2465785316817037
  0.6677247736736216  0.8342971392206234  0.7534550072171162
  0.3355196394904564  0.1688448996692529  0.2556386768982428
  0.3310807554464863  0.1645588584007828  0.7443758434714584
  0.3323223364521329  0.6687490242597324  0.2496918446086297
  0.3344614801217715  0.6647058754778929  0.7493911621587053
  0.8353527357577442  0.1655863089462215  0.2507882807733310
  0.8311406857928019  0.1676164299965480  0.7502261892147387
  0.8322998677526806  0.6657070666789189  0.2465067513622681
  0.8343565367088797  0.6676665929607727  0.7533942671499584
  0.3257881621438679  0.3257168625636497  0.1346408037930295
  0.3157709071312259  0.3158735252422321  0.6176011826405837
  0.3201587154118528  0.8235005584713723  0.1267872657864341
  0.3225425622531745  0.8197863206933812  0.6270623913714845
  0.8236333753426395  0.3202508335387685  0.1270003045827241
  0.8196089409998589  0.3223574837193916  0.6268408554656728
  0.8189524823624429  0.8190003413203458  0.1221314304305633
  0.8243699536117903  0.8243289213258630  0.6322034785444985
  0.1778364039696313  0.0046588330352819  0.1325784433881050
  0.1774922227420238  0.9950987366219317  0.6237068209615552
  0.1765689252356777  0.4991342293517911  0.1306304838550638
  0.1800006909072268  0.5005969616088093  0.6233533123695942
  0.6811094135263949  0.0012017256386624  0.1245559338865663
  0.6758838714693790  0.9989063554447318  0.6300686133988708
  0.6789647815588259  0.4969960997559555  0.1239412471478682
  0.6786345613406626  0.5032838911540232  0.6288877742257675
  0.0046231870062096  0.1777401093127540  0.1326935655589865
  0.9950784402965919  0.1775375662010692  0.6236844546133415
  0.0011226439589684  0.6811468102126854  0.1243412253669060
  0.9990665193127655  0.6758908666195789  0.6301405312314158
  0.4992637799349494  0.1764734438334514  0.1308596461024095
  0.5004391720916590  0.1800386003853371  0.6231862103770683
  0.4970629788911087  0.6789819040812167  0.1239163654008561
  0.5032653301141747  0.6785372660642149  0.6290755080778722
  0.3199651912413031  0.9993912729230745  0.3767008096922339
  0.3234538245940191  1.0008932004900433  0.8693519352476351
  0.3225244495074244  0.5049012077903884  0.3762592128522663
  0.3221487989032548  0.4953572746923199  0.8674638187049158
  0.8214127374053526  0.9967196859819492  0.3710472128159562
  0.8210156585016000  0.0029776509952176  0.8760834481369461
  0.8241366133846091  0.5010992769682452  0.3699273950719426
  0.8188790887000054  0.4987767273080876  0.8754349241770537
  0.1841850739250355  0.1841421749762932  0.3824106420408353
  0.1742177863533048  0.1742839266684142  0.8653846231587942
  0.1774641446315227  0.6802017648184281  0.3729139852098431
  0.1798887212295122  0.6765334401032848  0.8732278437821076
  0.6803813294099164  0.1776181312779355  0.3732040365836171
  0.6763150865481834  0.1797418406954912  0.8730370725044163
  0.6756723628917444  0.6756805534156094  0.3677798307617582
  0.6810152244509567  0.6809451376170441  0.8777897023893083
  0.9995433395644359  0.3199780471275023  0.3767926542210316
  1.0006909804508368  0.3234524746001419  0.8692693186546667
  0.9967484863837055  0.8214836965353772  0.3708730267522863
  0.0029606118860136  0.8210247625858882  0.8760715465262735
  0.5048936745279159  0.3224882236803931  0.3763551870307443
  0.4953766314395624  0.3223028465331479  0.8672590428537892
  0.5009642524822117  0.8240698105237290  0.3698871972359432
  0.4989146366794257  0.8188789624877814  0.8755978368232954
 
  0.00000000E+00  0.00000000E+00  0.00000000E+00
  0.00000000E+00  0.00000000E+00  0.00000000E+00
  0.00000000E+00  0.00000000E+00  0.00000000E+00
  0.00000000E+00  0.00000000E+00  0.00000000E+00
  0.00000000E+00  0.00000000E+00  0.00000000E+00
  0.00000000E+00  0.00000000E+00  0.00000000E+00
  0.00000000E+00  0.00000000E+00  0.00000000E+00
  0.00000000E+00  0.00000000E+00  0.00000000E+00
  0.00000000E+00  0.00000000E+00  0.00000000E+00
  0.00000000E+00  0.00000000E+00  0.00000000E+00
  0.00000000E+00  0.00000000E+00  0.00000000E+00
  0.00000000E+00  0.00000000E+00  0.00000000E+00
  0.00000000E+00  0.00000000E+00  0.00000000E+00
  0.00000000E+00  0.00000000E+00  0.00000000E+00
  0.00000000E+00  0.00000000E+00  0.00000000E+00
  0.00000000E+00  0.00000000E+00  0.00000000E+00
  0.00000000E+00  0.00000000E+00  0.00000000E+00
  0.00000000E+00  0.00000000E+00  0.00000000E+00
  0.00000000E+00  0.00000000E+00  0.00000000E+00
  0.00000000E+00  0.00000000E+00  0.00000000E+00
  0.00000000E+00  0.00000000E+00  0.00000000E+00
  0.00000000E+00  0.00000000E+00  0.00000000E+00
  0.00000000E+00  0.00000000E+00  0.00000000E+00
  0.00000000E+00  0.00000000E+00  0.00000000E+00
  0.00000000E+00  0.00000000E+00  0.00000000E+00
  0.00000000E+00  0.00000000E+00  0.00000000E+00
  0.00000000E+00  0.00000000E+00  0.00000000E+00
  0.00000000E+00  0.00000000E+00  0.00000000E+00
  0.00000000E+00  0.00000000E+00  0.00000000E+00
  0.00000000E+00  0.00000000E+00  0.00000000E+00
  0.00000000E+00  0.00000000E+00  0.00000000E+00
  0.00000000E+00  0.00000000E+00  0.00000000E+00
  0.00000000E+00  0.00000000E+00  0.00000000E+00
  0.00000000E+00  0.00000000E+00  0.00000000E+00
  0.00000000E+00  0.00000000E+00  0.00000000E+00
  0.00000000E+00  0.00000000E+00  0.00000000E+00
  0.00000000E+00  0.00000000E+00  0.00000000E+00
  0.00000000E+00  0.00000000E+00  0.00000000E+00
  0.00000000E+00  0.00000000E+00  0.00000000E+00
  0.00000000E+00  0.00000000E+00  0.00000000E+00
  0.00000000E+00  0.00000000E+00  0.00000000E+00
  0.00000000E+00  0.00000000E+00  0.00000000E+00
  0.00000000E+00  0.00000000E+00  0.00000000E+00
  0.00000000E+00  0.00000000E+00  0.00000000E+00
  0.00000000E+00  0.00000000E+00  0.00000000E+00
  0.00000000E+00  0.00000000E+00  0.00000000E+00
  0.00000000E+00  0.00000000E+00  0.00000000E+00
  0.00000000E+00  0.00000000E+00  0.00000000E+00
  0.00000000E+00  0.00000000E+00  0.00000000E+00
  0.00000000E+00  0.00000000E+00  0.00000000E+00
  0.00000000E+00  0.00000000E+00  0.00000000E+00
  0.00000000E+00  0.00000000E+00  0.00000000E+00
  0.00000000E+00  0.00000000E+00  0.00000000E+00
  0.00000000E+00  0.00000000E+00  0.00000000E+00
  0.00000000E+00  0.00000000E+00  0.00000000E+00
  0.00000000E+00  0.00000000E+00  0.00000000E+00
  0.00000000E+00  0.00000000E+00  0.00000000E+00
  0.00000000E+00  0.00000000E+00  0.00000000E+00
  0.00000000E+00  0.00000000E+00  0.00000000E+00
  0.00000000E+00  0.00000000E+00  0.00000000E+00
  0.00000000E+00  0.00000000E+00  0.00000000E+00
  0.00000000E+00  0.00000000E+00  0.00000000E+00
  0.00000000E+00  0.00000000E+00  0.00000000E+00
  0.00000000E+00  0.00000000E+00  0.00000000E+00
  0.00000000E+00  0.00000000E+00  0.00000000E+00
  0.00000000E+00  0.00000000E+00  0.00000000E+00
  0.00000000E+00  0.00000000E+00  0.00000000E+00
  0.00000000E+00  0.00000000E+00  0.00000000E+00
  0.00000000E+00  0.00000000E+00  0.00000000E+00
  0.00000000E+00  0.00000000E+00  0.00000000E+00
  0.00000000E+00  0.00000000E+00  0.00000000E+00
  0.00000000E+00  0.00000000E+00  0.00000000E+00
