Li8 Mn16 O48
1.0
9.996316 0.000009 0.001784
-4.998165 8.657059 -0.002284
-0.001468 0.001322 8.225567
Li Mn O
8 16 48
direct
0.001233 0.001229 0.000096 Li
-0.002747 -0.002739 0.501722 Li
0.000004 0.500018 0.000002 Li
-0.000417 0.500371 0.499991 Li
0.499996 -0.000018 -0.000002 Li
0.500417 -0.000371 0.500009 Li
0.498767 0.498771 -0.000096 Li
0.502747 0.502739 0.498278 Li
0.167599 0.336164 0.252182 Mn
0.163824 0.332411 0.747824 Mn
0.166569 0.834288 0.250192 Mn
0.166164 0.831455 0.750380 Mn
0.668552 0.333835 0.249599 Mn
0.665709 0.333439 0.749840 Mn
0.666848 0.833462 0.248320 Mn
0.666552 0.833149 0.751678 Mn
0.336176 0.167589 0.252176 Mn
0.332401 0.163836 0.747818 Mn
0.333836 0.668545 0.249620 Mn
0.333431 0.665712 0.749808 Mn
0.834291 0.166561 0.250160 Mn
0.831448 0.166165 0.750401 Mn
0.833448 0.666851 0.248322 Mn
0.833152 0.666538 0.751680 Mn
0.322453 0.322441 0.131847 O
0.314116 0.314141 0.612920 O
0.321324 0.822795 0.126760 O
0.321524 0.820641 0.627540 O
0.822811 0.321341 0.126736 O
0.820598 0.321500 0.627542 O
0.820915 0.820913 0.124836 O
0.821622 0.821621 0.629154 O
0.178524 1.002986 0.130812 O
0.177217 0.997005 0.626312 O
0.178455 0.500096 0.128231 O
0.178296 0.500255 0.625751 O
0.680104 1.000859 0.125733 O
0.677160 0.999155 0.628541 O
0.679225 0.499388 0.125483 O
0.677933 0.500779 0.628208 O
0.002999 0.178551 0.130756 O
-0.002997 0.177243 0.626334 O
0.000874 0.680114 0.125783 O
-0.000880 0.677135 0.628520 O
0.500075 0.178460 0.128213 O
0.500250 0.178368 0.625742 O
0.499397 0.679219 0.125516 O
0.500766 0.677941 0.628200 O
0.321704 -0.000255 0.374249 O
0.321545 -0.000096 0.871769 O
0.322783 0.502995 0.373688 O
0.321476 0.497014 0.869188 O
0.822067 -0.000779 0.371792 O
0.820775 0.000612 0.874517 O
0.822840 0.500845 0.371459 O
0.819896 0.499141 0.874267 O
0.185884 0.185859 0.387080 O
0.177547 0.177559 0.868153 O
0.178476 0.679359 0.372460 O
0.178676 0.677205 0.873240 O
0.679402 0.178500 0.372458 O
0.677189 0.178659 0.873264 O
0.678378 0.678379 0.370846 O
0.679085 0.679087 0.875164 O
0.999750 0.321632 0.374258 O
0.999925 0.321540 0.871787 O
0.999234 0.822059 0.371800 O
1.000603 0.820781 0.874484 O
0.502997 0.322757 0.373666 O
0.497001 0.321449 0.869244 O
0.500880 0.822865 0.371480 O
0.499126 0.819886 0.874217 O
