Li8 Mn16 O48                            
   1.00000000000000     
     9.9963160000000002    0.0000090000000000    0.0017840000000000
    -4.9981650000000002    8.6570590000000003   -0.0022840000000000
    -0.0014680000000000    0.0013220000000000    8.2255669999999999
   Li   Mn   O 
     8    16    48
Direct
  0.9997160227682383  1.0003150218636934  1.0001155336543388
  0.9985656505967404  0.9982423031988459  0.4999142323738295
  0.0013748429916050  0.4991754715000036  0.9997359564007926
  0.9977995271220291  0.4991984007501256  0.5002499611643321
  0.4997043836806588  0.9982764957732920  0.0000766804421279
  0.5005906844433936  0.0003141962354179  0.4998862075480608
  0.5031090117221340  0.5034422743066230  0.9997110492827614
  0.5003574347894939  0.5034645606010448  0.5002973337641623
  0.1692240465582083  0.3352976361444597  0.2563810128509096
  0.1672487462617541  0.3319772888637568  0.7485270248229211
  0.1655600726009776  0.8311233251135619  0.2500080687668601
  0.1651346502644975  0.8302673553897885  0.7500442233355571
  0.6660392769118344  0.3352786504671406  0.2436201379145793
  0.6647304041168145  0.3319669830120603  0.7514470615360197
  0.6681585687405627  0.8362978233908366  0.2499857838680449
  0.6674223294474354  0.8348364225739470  0.7500023129459199
  0.3319254190088007  0.1638741539268325  0.2499912401238459
  0.3316364971312554  0.1632637004021671  0.7500209905432904
  0.3346078677390809  0.6675044462461448  0.2518855251026543
  0.3340770775702883  0.6657807525451506  0.7520364576513336
  0.8346950931358682  0.1694082471929262  0.2499745085688320
  0.8339462670963756  0.1678872782054554  0.7499792073089220
  0.8328880296459266  0.6674793324203772  0.2481453259304245
  0.8317002072950371  0.6657665224269464  0.7479895232921751
  0.3298380410842420  0.3300369890111440  0.1382591135736442
  0.3218900716640375  0.3187546680321626  0.6255594742190630
  0.3203074215124410  0.8196093320939424  0.1266835250172691
  0.3213374589529169  0.8198705164123006  0.6285686514989862
  0.8223350729194329  0.3221341337088057  0.1243979066077506
  0.8205431611997128  0.3222120529425849  0.6280513243150095
  0.8231195577794599  0.8242611997940643  0.1272659872522851
  0.8204637197440162  0.8210705900459904  0.6251558931891115
  0.1778915352719640  0.9984822177267388  0.1263275102020467
  0.1777329928930323  0.9966505666666133  0.6258647734161492
  0.1810496948867730  0.4996433272510163  0.1297300929818161
  0.1799398847970267  0.5002565676099761  0.6272147145083031
  0.6808012055306267  0.0024058679481768  0.1260013558141883
  0.6791778679429014  0.0012971180286617  0.6267139990162948
  0.6830475693171787  0.5028571776788048  0.1184895981433463
  0.6755028603926017  0.4975566978832288  0.6263986307151040
  0.0037648476016752  0.1804915766427517  0.1305447402112410
  0.9993597507593506  0.1790647328549430  0.6250437132828568
  0.9995738555924991  0.6772664920764592  0.1267861744837676
  0.9983989702499679  0.6764060281069580  0.6259113487137185
  0.4983650630692089  0.1762780399379943  0.1250656905031143
  0.4995344174463720  0.1735644219318588  0.6321549066068844
  0.5011697069374371  0.6803635526623941  0.1279503611317658
  0.5007902047421952  0.6792249687302253  0.6285395669864151
  0.3205924696247044  0.9984933685513514  0.3736690665875346
  0.3189211511974294  0.9966604368279839  0.8742022682616056
  0.3198205156289700  0.5028692092996783  0.3815247304586423
  0.3220777692808818  0.4975525333243804  0.8735833276797900
  0.8216404025102950  0.0024117623839240  0.3739327559455020
  0.8221458977358109  0.0013095557850622  0.8732574852525519
  0.8185285604865576  0.4996008192231154  0.3703217447969116
  0.8203126332486994  0.5002302043634247  0.8727801385189913
  0.1778817349179202  0.1762635841498613  0.3749078646927305
  0.1740310374341857  0.1735831603476598  0.8678592504491500
  0.1777031614033341  0.6772835577762338  0.3732383307863275
  0.1780303828243743  0.6764093389122824  0.8741568719812993
  0.6766856875767634  0.1804509666078756  0.3694201948648374
  0.6796934186800726  0.1790423604198144  0.8749111193687742
  0.6792095993536231  0.6803909599930735  0.3720775695446524
  0.6784209266324684  0.6792052350047333  0.8714616834411879
  0.9997636268136998  0.3221521014502106  0.3755764424148457
  0.0016634904310852  0.3222268982000734  0.8719070964311969
  0.9992975000539505  0.8195901656128244  0.3733411892163491
  0.9985125457998464  0.8198384766224600  0.8714986651931957
  0.5001752755710009  0.3300394993145278  0.3617241452987295
  0.4968933710536818  0.3187493175557852  0.8744652807431297
  0.5011926267123723  0.8243483294755227  0.3726982227855282
  0.5006321981193446  0.8210936002122158  0.8748550214341095
 
  0.00000000E+00  0.00000000E+00  0.00000000E+00
  0.00000000E+00  0.00000000E+00  0.00000000E+00
  0.00000000E+00  0.00000000E+00  0.00000000E+00
  0.00000000E+00  0.00000000E+00  0.00000000E+00
  0.00000000E+00  0.00000000E+00  0.00000000E+00
  0.00000000E+00  0.00000000E+00  0.00000000E+00
  0.00000000E+00  0.00000000E+00  0.00000000E+00
  0.00000000E+00  0.00000000E+00  0.00000000E+00
  0.00000000E+00  0.00000000E+00  0.00000000E+00
  0.00000000E+00  0.00000000E+00  0.00000000E+00
  0.00000000E+00  0.00000000E+00  0.00000000E+00
  0.00000000E+00  0.00000000E+00  0.00000000E+00
  0.00000000E+00  0.00000000E+00  0.00000000E+00
  0.00000000E+00  0.00000000E+00  0.00000000E+00
  0.00000000E+00  0.00000000E+00  0.00000000E+00
  0.00000000E+00  0.00000000E+00  0.00000000E+00
  0.00000000E+00  0.00000000E+00  0.00000000E+00
  0.00000000E+00  0.00000000E+00  0.00000000E+00
  0.00000000E+00  0.00000000E+00  0.00000000E+00
  0.00000000E+00  0.00000000E+00  0.00000000E+00
  0.00000000E+00  0.00000000E+00  0.00000000E+00
  0.00000000E+00  0.00000000E+00  0.00000000E+00
  0.00000000E+00  0.00000000E+00  0.00000000E+00
  0.00000000E+00  0.00000000E+00  0.00000000E+00
  0.00000000E+00  0.00000000E+00  0.00000000E+00
  0.00000000E+00  0.00000000E+00  0.00000000E+00
  0.00000000E+00  0.00000000E+00  0.00000000E+00
  0.00000000E+00  0.00000000E+00  0.00000000E+00
  0.00000000E+00  0.00000000E+00  0.00000000E+00
  0.00000000E+00  0.00000000E+00  0.00000000E+00
  0.00000000E+00  0.00000000E+00  0.00000000E+00
  0.00000000E+00  0.00000000E+00  0.00000000E+00
  0.00000000E+00  0.00000000E+00  0.00000000E+00
  0.00000000E+00  0.00000000E+00  0.00000000E+00
  0.00000000E+00  0.00000000E+00  0.00000000E+00
  0.00000000E+00  0.00000000E+00  0.00000000E+00
  0.00000000E+00  0.00000000E+00  0.00000000E+00
  0.00000000E+00  0.00000000E+00  0.00000000E+00
  0.00000000E+00  0.00000000E+00  0.00000000E+00
  0.00000000E+00  0.00000000E+00  0.00000000E+00
  0.00000000E+00  0.00000000E+00  0.00000000E+00
  0.00000000E+00  0.00000000E+00  0.00000000E+00
  0.00000000E+00  0.00000000E+00  0.00000000E+00
  0.00000000E+00  0.00000000E+00  0.00000000E+00
  0.00000000E+00  0.00000000E+00  0.00000000E+00
  0.00000000E+00  0.00000000E+00  0.00000000E+00
  0.00000000E+00  0.00000000E+00  0.00000000E+00
  0.00000000E+00  0.00000000E+00  0.00000000E+00
  0.00000000E+00  0.00000000E+00  0.00000000E+00
  0.00000000E+00  0.00000000E+00  0.00000000E+00
  0.00000000E+00  0.00000000E+00  0.00000000E+00
  0.00000000E+00  0.00000000E+00  0.00000000E+00
  0.00000000E+00  0.00000000E+00  0.00000000E+00
  0.00000000E+00  0.00000000E+00  0.00000000E+00
  0.00000000E+00  0.00000000E+00  0.00000000E+00
  0.00000000E+00  0.00000000E+00  0.00000000E+00
  0.00000000E+00  0.00000000E+00  0.00000000E+00
  0.00000000E+00  0.00000000E+00  0.00000000E+00
  0.00000000E+00  0.00000000E+00  0.00000000E+00
  0.00000000E+00  0.00000000E+00  0.00000000E+00
  0.00000000E+00  0.00000000E+00  0.00000000E+00
  0.00000000E+00  0.00000000E+00  0.00000000E+00
  0.00000000E+00  0.00000000E+00  0.00000000E+00
  0.00000000E+00  0.00000000E+00  0.00000000E+00
  0.00000000E+00  0.00000000E+00  0.00000000E+00
  0.00000000E+00  0.00000000E+00  0.00000000E+00
  0.00000000E+00  0.00000000E+00  0.00000000E+00
  0.00000000E+00  0.00000000E+00  0.00000000E+00
  0.00000000E+00  0.00000000E+00  0.00000000E+00
  0.00000000E+00  0.00000000E+00  0.00000000E+00
  0.00000000E+00  0.00000000E+00  0.00000000E+00
  0.00000000E+00  0.00000000E+00  0.00000000E+00
