Li8 Mn16 O48
1.0
9.996316 0.000009 0.001784
-4.998165 8.657059 -0.002284
-0.001468 0.001322 8.225567
Li Mn O
8 16 48
direct
-0.000243 -0.000004 -0.000091 Li
-0.000547 -0.000897 0.499663 Li
0.000991 0.499898 -0.000088 Li
-0.001098 0.499897 0.500084 Li
0.499650 -0.000895 0.000337 Li
0.500240 0.000000 0.500082 Li
0.502764 0.502612 -0.001679 Li
0.499844 0.502614 0.501675 Li
0.166605 0.334549 0.254673 Mn
0.166892 0.333054 0.749659 Mn
0.165607 0.831229 0.249995 Mn
0.166239 0.832463 0.749993 Mn
0.667941 0.334552 0.245332 Mn
0.666164 0.333059 0.750347 Mn
0.666779 0.833556 0.250002 Mn
0.666925 0.833851 0.750003 Mn
0.330915 0.161832 0.250003 Mn
0.332913 0.165821 0.749997 Mn
0.333590 0.666838 0.251195 Mn
0.333590 0.666580 0.750900 Mn
0.833135 0.166269 0.250001 Mn
0.833441 0.166881 0.750003 Mn
0.833243 0.666839 0.248810 Mn
0.833006 0.666594 0.749090 Mn
0.336894 0.330413 0.140566 O
0.322236 0.321232 0.626910 O
0.320781 0.820348 0.127221 O
0.321546 0.821139 0.627930 O
0.821449 0.320664 0.125424 O
0.821285 0.321768 0.627587 O
0.821685 0.821967 0.126871 O
0.820988 0.821248 0.626223 O
0.178275 0.998436 0.125933 O
0.178174 0.999134 0.626815 O
0.179420 0.499300 0.128671 O
0.178784 0.500243 0.627473 O
0.678989 1.000142 0.126729 O
0.678696 1.000393 0.626991 O
0.681603 0.501222 0.122364 O
0.677313 0.499131 0.626510 O
0.001791 0.179364 0.128721 O
-0.000136 0.178246 0.626873 O
-0.000150 0.677916 0.126572 O
-0.000367 0.678094 0.626561 O
0.499415 0.176681 0.127836 O
0.499954 0.176800 0.629253 O
0.499948 0.678459 0.127952 O
0.500161 0.679046 0.627776 O
0.320146 -0.001564 0.374063 O
0.320970 -0.000864 0.873174 O
0.319631 0.501216 0.377650 O
0.321811 0.499123 0.873486 O
0.821158 0.000147 0.373270 O
0.821681 0.000395 0.873014 O
0.819892 0.499302 0.371326 O
0.821461 0.500258 0.872524 O
0.177250 0.176674 0.372163 O
0.176841 0.176789 0.870752 O
0.178064 0.677934 0.373435 O
0.178465 0.678086 0.873423 O
0.677574 0.179365 0.371280 O
0.678386 0.178243 0.873136 O
0.678512 0.678445 0.372055 O
0.678909 0.679063 0.872238 O
0.999219 0.320668 0.374586 O
1.000480 0.321768 0.872415 O
0.999558 0.820372 0.372754 O
0.999615 0.821147 0.872056 O
0.493537 0.330414 0.359453 O
0.498987 0.321232 0.873088 O
0.500280 0.821970 0.373138 O
0.500254 0.821240 0.873773 O
