Li8 Mn16 O48                            
   1.00000000000000     
     9.9963160000000002    0.0000090000000000    0.0017840000000000
    -4.9981650000000002    8.6570590000000003   -0.0022840000000000
    -0.0014680000000000    0.0013220000000000    8.2255669999999999
   Li   Mn   O 
     8    16    48
Direct
  1.0001026926164478  1.0004434526896060  0.9999952208905017
  0.9993567492406045  0.9990149232431218  0.4998169108736200
  0.0010610520061209  0.4996545448303616  0.9999760387913391
  0.9985837854494687  0.4996386069209271  0.5000196084251757
  0.4996634402792539  0.9990021675531491  0.0001946430425188
  0.5003477884913573  0.0004581107841258  0.5000067078190278
  0.5006702401896300  0.5012139704925535  0.9999145109794590
  0.5005413585069859  0.5012246512097919  0.5000823087126859
  0.1673369128263384  0.3342734040668237  0.2537312898392214
  0.1673951428682327  0.3325086115571468  0.7479699148765110
  0.1668512500641207  0.8336849965641872  0.2499831341794071
  0.1651931672745051  0.8304646495922744  0.7499919734083186
  0.6669416712170607  0.3342809759704424  0.2462814921709234
  0.6650786008630067  0.3324063804839375  0.7520475632037734
  0.6671237254791833  0.8342265053048266  0.2500173913538840
  0.6674648776306393  0.8349182591974958  0.7499788211048776
  0.3335557863446698  0.1671035160699028  0.2499688885491038
  0.3317791292802983  0.1635868293397822  0.7500229782833685
  0.3336448359013986  0.6672699150496876  0.2520343677815740
  0.3341217957242425  0.6660249847629204  0.7497107519636664
  0.8337133604432934  0.1674293942233848  0.2500328093286469
  0.8341361084558051  0.1682123364720998  0.7500025729659985
  0.8336432809430878  0.6672763450412892  0.2479710641360962
  0.8318152422925462  0.6659192669344882  0.7502405754177899
  0.3236913810188796  0.3251923249181253  0.1313125929020157
  0.3213915127402259  0.3186203591473551  0.6252599010113655
  0.3218565342202398  0.8214114282977335  0.1278806076648646
  0.3206771359966238  0.8200671258235385  0.6267781512526854
  0.8220954767323666  0.3211501864983279  0.1248995110091389
  0.8209036143772761  0.3228294890140954  0.6284014805085676
  0.8217818893638208  0.8226980041544494  0.1262928982429603
  0.8214329944804628  0.8214433318333757  0.6268164557922814
  0.1787093983286168  1.0005894211068256  0.1268875839936283
  0.1776228381156702  0.9971404777287697  0.6263516623492460
  0.1784689526109182  0.5001210601969740  0.1301539555042405
  0.1802144674708633  0.4999200904903143  0.6252234975269919
  0.6792907328943106  0.0006368441479116  0.1265920720184714
  0.6790990503585562  0.0014928635384993  0.6270622558007947
  0.6810150205920624  0.5013492158265039  0.1220406180158469
  0.6757661218442272  0.4985598473171585  0.6287287368870234
  0.0018008540776917  0.1791270655018135  0.1295114902377359
  0.9994175385299611  0.1792188905495678  0.6249942588636531
  1.0009824367899107  0.6793647335353656  0.1258662226828003
  0.9978901579827368  0.6760604309074890  0.6273692324740345
  0.4991946358394833  0.1787652778017189  0.1246887347615677
  0.4998262467380960  0.1756466668243390  0.6300410263102534
  0.4996751092998710  0.6785792257143241  0.1282416758605031
  0.5014584232213954  0.6797961064681511  0.6267707994399841
  0.3219113710730389  1.0006069524900578  0.3730354337674104
  0.3194086139005772  0.9971063012453654  0.8737001397061980
  0.3203169184996076  0.5013370724966680  0.3779784631610364
  0.3228199490763596  0.4986840953317309  0.8712645028366801
  0.8213388265217254  0.0006400505562876  0.3734774350557267
  0.8224482297979387  0.0014704909543765  0.8728978958042036
  0.8216472868320163  0.5001264058909651  0.3698627080878470
  0.8196616273896381  0.4998497586938994  0.8747632409537872
  0.1795973475966151  0.1787650784144429  0.3752809353525237
  0.1758434535111750  0.1757232342922631  0.8700123580372020
  0.1784352245416609  0.6794108763069538  0.3741604938916946
  0.1781877413984065  0.6761284455953859  0.8726180604731736
  0.6773405286546731  0.1791579244985800  0.3705444838739264
  0.6798492277530016  0.1791746806081704  0.8750425685421080
  0.6789439045405181  0.6785910378818214  0.3717957992293376
  0.6782687398358115  0.6797477546728062  0.8731758548307545
  0.9990706349574731  0.3211358500722529  0.3751498774176882
  0.0019565099122387  0.3228835586244627  0.8715883301901007
  0.9995869693037607  0.8214359015174636  0.3720862157152512
  0.9992787270074739  0.8200086894088428  0.8731656050670327
  0.5014815712615677  0.3251862908401515  0.3686571611703728
  0.4972371232869136  0.3185899372770339  0.8747698262192830
  0.5009229650734012  0.8226885128439710  0.3737275026072177
  0.5000509163973523  0.8215317911681140  0.8731188974790263
 
  0.00000000E+00  0.00000000E+00  0.00000000E+00
  0.00000000E+00  0.00000000E+00  0.00000000E+00
  0.00000000E+00  0.00000000E+00  0.00000000E+00
  0.00000000E+00  0.00000000E+00  0.00000000E+00
  0.00000000E+00  0.00000000E+00  0.00000000E+00
  0.00000000E+00  0.00000000E+00  0.00000000E+00
  0.00000000E+00  0.00000000E+00  0.00000000E+00
  0.00000000E+00  0.00000000E+00  0.00000000E+00
  0.00000000E+00  0.00000000E+00  0.00000000E+00
  0.00000000E+00  0.00000000E+00  0.00000000E+00
  0.00000000E+00  0.00000000E+00  0.00000000E+00
  0.00000000E+00  0.00000000E+00  0.00000000E+00
  0.00000000E+00  0.00000000E+00  0.00000000E+00
  0.00000000E+00  0.00000000E+00  0.00000000E+00
  0.00000000E+00  0.00000000E+00  0.00000000E+00
  0.00000000E+00  0.00000000E+00  0.00000000E+00
  0.00000000E+00  0.00000000E+00  0.00000000E+00
  0.00000000E+00  0.00000000E+00  0.00000000E+00
  0.00000000E+00  0.00000000E+00  0.00000000E+00
  0.00000000E+00  0.00000000E+00  0.00000000E+00
  0.00000000E+00  0.00000000E+00  0.00000000E+00
  0.00000000E+00  0.00000000E+00  0.00000000E+00
  0.00000000E+00  0.00000000E+00  0.00000000E+00
  0.00000000E+00  0.00000000E+00  0.00000000E+00
  0.00000000E+00  0.00000000E+00  0.00000000E+00
  0.00000000E+00  0.00000000E+00  0.00000000E+00
  0.00000000E+00  0.00000000E+00  0.00000000E+00
  0.00000000E+00  0.00000000E+00  0.00000000E+00
  0.00000000E+00  0.00000000E+00  0.00000000E+00
  0.00000000E+00  0.00000000E+00  0.00000000E+00
  0.00000000E+00  0.00000000E+00  0.00000000E+00
  0.00000000E+00  0.00000000E+00  0.00000000E+00
  0.00000000E+00  0.00000000E+00  0.00000000E+00
  0.00000000E+00  0.00000000E+00  0.00000000E+00
  0.00000000E+00  0.00000000E+00  0.00000000E+00
  0.00000000E+00  0.00000000E+00  0.00000000E+00
  0.00000000E+00  0.00000000E+00  0.00000000E+00
  0.00000000E+00  0.00000000E+00  0.00000000E+00
  0.00000000E+00  0.00000000E+00  0.00000000E+00
  0.00000000E+00  0.00000000E+00  0.00000000E+00
  0.00000000E+00  0.00000000E+00  0.00000000E+00
  0.00000000E+00  0.00000000E+00  0.00000000E+00
  0.00000000E+00  0.00000000E+00  0.00000000E+00
  0.00000000E+00  0.00000000E+00  0.00000000E+00
  0.00000000E+00  0.00000000E+00  0.00000000E+00
  0.00000000E+00  0.00000000E+00  0.00000000E+00
  0.00000000E+00  0.00000000E+00  0.00000000E+00
  0.00000000E+00  0.00000000E+00  0.00000000E+00
  0.00000000E+00  0.00000000E+00  0.00000000E+00
  0.00000000E+00  0.00000000E+00  0.00000000E+00
  0.00000000E+00  0.00000000E+00  0.00000000E+00
  0.00000000E+00  0.00000000E+00  0.00000000E+00
  0.00000000E+00  0.00000000E+00  0.00000000E+00
  0.00000000E+00  0.00000000E+00  0.00000000E+00
  0.00000000E+00  0.00000000E+00  0.00000000E+00
  0.00000000E+00  0.00000000E+00  0.00000000E+00
  0.00000000E+00  0.00000000E+00  0.00000000E+00
  0.00000000E+00  0.00000000E+00  0.00000000E+00
  0.00000000E+00  0.00000000E+00  0.00000000E+00
  0.00000000E+00  0.00000000E+00  0.00000000E+00
  0.00000000E+00  0.00000000E+00  0.00000000E+00
  0.00000000E+00  0.00000000E+00  0.00000000E+00
  0.00000000E+00  0.00000000E+00  0.00000000E+00
  0.00000000E+00  0.00000000E+00  0.00000000E+00
  0.00000000E+00  0.00000000E+00  0.00000000E+00
  0.00000000E+00  0.00000000E+00  0.00000000E+00
  0.00000000E+00  0.00000000E+00  0.00000000E+00
  0.00000000E+00  0.00000000E+00  0.00000000E+00
  0.00000000E+00  0.00000000E+00  0.00000000E+00
  0.00000000E+00  0.00000000E+00  0.00000000E+00
  0.00000000E+00  0.00000000E+00  0.00000000E+00
  0.00000000E+00  0.00000000E+00  0.00000000E+00
