Li8 Mn16 O48
1.0
9.996316 0.000009 0.001784
-4.998165 8.657059 -0.002284
-0.001468 0.001322 8.225567
Li Mn O
8 16 48
direct
-0.000122 -0.000002 -0.000045 Li
-0.000273 -0.000448 0.499832 Li
0.000496 0.499949 -0.000044 Li
-0.000549 0.499948 0.500042 Li
0.499825 -0.000448 0.000169 Li
0.500120 0.000000 0.500041 Li
0.501382 0.501306 -0.000839 Li
0.499922 0.501307 0.500837 Li
0.166636 0.333941 0.252336 Mn
0.166780 0.333194 0.749829 Mn
0.166137 0.832281 0.249997 Mn
0.166453 0.832898 0.749996 Mn
0.667304 0.333943 0.247666 Mn
0.666416 0.333196 0.750173 Mn
0.666723 0.833445 0.250001 Mn
0.666796 0.833592 0.750001 Mn
0.332124 0.164249 0.250002 Mn
0.333123 0.166244 0.749999 Mn
0.333461 0.666752 0.250598 Mn
0.333461 0.666624 0.750450 Mn
0.833234 0.166468 0.250001 Mn
0.833387 0.166774 0.750002 Mn
0.833288 0.666753 0.249405 Mn
0.833169 0.666630 0.749545 Mn
0.329177 0.325937 0.133850 O
0.321848 0.321346 0.627022 O
0.321120 0.820904 0.127178 O
0.321503 0.821300 0.627533 O
0.821454 0.321062 0.126279 O
0.821373 0.321614 0.627361 O
0.821573 0.821714 0.127003 O
0.821224 0.821354 0.626679 O
0.178408 0.999218 0.126534 O
0.178357 0.999567 0.626975 O
0.178980 0.499650 0.127903 O
0.178662 0.500121 0.627304 O
0.678764 1.000071 0.126932 O
0.678618 1.000197 0.627063 O
0.680071 0.500611 0.124749 O
0.677927 0.499566 0.626822 O
0.000895 0.178952 0.127928 O
-0.000068 0.178393 0.627004 O
-0.000075 0.678228 0.126853 O
-0.000184 0.678317 0.626848 O
0.499708 0.177610 0.127486 O
0.499977 0.177670 0.628194 O
0.499974 0.678499 0.127543 O
0.500081 0.678793 0.627455 O
0.320803 -0.000782 0.373464 O
0.321215 -0.000432 0.873019 O
0.320546 0.500608 0.375258 O
0.321636 0.499562 0.873176 O
0.821309 0.000073 0.373067 O
0.821571 0.000198 0.872940 O
0.820676 0.499651 0.372095 O
0.821460 0.500129 0.872695 O
0.177895 0.177607 0.372514 O
0.177690 0.177664 0.871809 O
0.178302 0.678237 0.373150 O
0.178502 0.678313 0.873144 O
0.678057 0.178953 0.372072 O
0.678463 0.178391 0.873000 O
0.678526 0.678492 0.372460 O
0.678724 0.678801 0.872552 O
0.999610 0.321064 0.373725 O
1.000240 0.321614 0.872640 O
0.999779 0.820916 0.372809 O
0.999807 0.821304 0.872460 O
0.496769 0.325937 0.366159 O
0.499494 0.321346 0.872976 O
0.500140 0.821715 0.373002 O
0.500127 0.821350 0.873319 O
