Li8 Mn16 O48                            
   1.00000000000000     
     9.9963160000000002    0.0000090000000000    0.0017840000000000
    -4.9981650000000002    8.6570590000000003   -0.0022840000000000
    -0.0014680000000000    0.0013220000000000    8.2255669999999999
   Li   Mn   O 
     8    16    48
Direct
  0.9995375473192221  1.0005626026990335  0.9996488112404389
  0.9979349549038926  0.9973876805109839  0.4996476227772408
  0.0021803109988515  0.4993516780462015  0.9996208910007407
  0.9971424854119205  0.4993445800567013  0.5003502823317786
  0.4994734338981395  0.9973916656618786  0.0003998749132963
  0.5010668061939343  0.0001474392572936  0.4999274498752192
  0.5074632349173993  0.5069845274992509  0.9977064922828403
  0.4994857699622361  0.5070540116602913  0.5022412380958575
  0.1686351087998563  0.3370672663240837  0.2650788753128934
  0.1672095991841927  0.3316588171744895  0.7489460493306391
  0.1632544447847690  0.8265102723943922  0.2499656349843869
  0.1648473197384653  0.8296107568775716  0.7500368861542978
  0.6684618063568569  0.3371936943871983  0.2349153983840517
  0.6644429641931363  0.3317176251421422  0.7511212018504414
  0.6679583177977294  0.8359578051009696  0.2499725607765003
  0.6675698116034908  0.8351029957438493  0.7500042370559417
  0.3237573282904903  0.1474626366766199  0.2499853688223383
  0.3314566011302932  0.1629414288542267  0.7500120508462282
  0.3348686383775999  0.6677369069266536  0.2528209228069582
  0.3344036480621950  0.6660643388567560  0.7524946196097637
  0.8337965696407186  0.1676723618973651  0.2499755595242202
  0.8339427169965011  0.1679134392520635  0.7500538513469258
  0.8328947992290322  0.6678473777290024  0.2471242494033509
  0.8317449031946601  0.6661127992066206  0.7475606929043861
  0.3691548118304868  0.3464197481131046  0.1717725944411951
  0.3223154391400325  0.3187574653687404  0.6254849658641410
  0.3194789310659834  0.8181792068585652  0.1266705280602875
  0.3212675474996818  0.8197173740212211  0.6288668611455992
  0.8211859917653345  0.3212557766511623  0.1235103469552161
  0.8208087623259471  0.3225523346935968  0.6283682709338467
  0.8229949319668444  0.8243620035194614  0.1266251218010278
  0.8202617623066885  0.8210431956475422  0.6246460459784332
  0.1769897296643587  0.9953265951923932  0.1242387376372285
  0.1769488678126041  0.9963806708061516  0.6263640964126427
  0.1828152752474974  0.4978007007817351  0.1310194927842387
  0.1801626995332543  0.5005499226606035  0.6275886202094868
  0.6809971263015676  0.0022812999581152  0.1257928872119401
  0.6792313281750832  0.0017184093978057  0.6267460439028700
  0.6872956991514946  0.5044546057611027  0.1125224667203885
  0.6739873151482998  0.4966952875760377  0.6250470742729911
  0.0067782242681853  0.1817406853975373  0.1321903568988258
  0.9994923935808334  0.1783965404647225  0.6256809821511634
  0.9993683638242579  0.6764979667594303  0.1261767055098363
  0.9981738760324588  0.6762400266705375  0.6256772612701986
  0.4976322064356695  0.1719346024617886  0.1263046198946516
  0.4995721692860248  0.1742886250449637  0.6321373198931804
  0.5009418747725283  0.6801711002306333  0.1285668555602912
  0.5009336510311293  0.6798592090071323  0.6288488990669400
  0.3183774125796159  0.9953033504992359  0.3756984527756627
  0.3194717833028755  0.9964241865754654  0.8737130760497226
  0.3170766822953190  0.5043616872895357  0.3874556722961358
  0.3226484843514675  0.4966280237694909  0.8750160982465652
  0.8212081451337527  0.0022936456883629  0.3741619248734243
  0.8224719638844555  0.0016955463186301  0.8732774311631885
  0.8149664791264241  0.4978948697346249  0.3689940533649930
  0.8203921906011293  0.5006273524495339  0.8725020704429057
  0.1742805195996219  0.1718607245505272  0.3736746437156017
  0.1747430138432940  0.1743216544676544  0.8679518002778187
  0.1770487613670558  0.6764491034844023  0.3737520410485158
  0.1781731720669875  0.6762762200487817  0.8744206403702163
  0.6749064818334650  0.1817799941433333  0.3677390293826703
  0.6789166292176700  0.1784440898819825  0.8743969404259173
  0.6791988687392916  0.6802033177766231  0.3713813133998078
  0.6790159682606094  0.6799178692428310  0.8711947299764352
  0.9999923583220882  0.3211230554284667  0.3765503336309520
  0.0017058682530331  0.3224438009846661  0.8718226599090690
  0.9987453402675825  0.8182864816914931  0.3732671986357026
  0.9985217997075662  0.8197188265161942  0.8711899038922125
  0.4772734966694168  0.3464422637336877  0.3282684831521150
  0.4964109401098600  0.3188690051578694  0.8744634897304302
  0.5012865900036526  0.8242059987098930  0.3733498557632641
  0.5008245866618344  0.8210108329602901  0.8753587350198789
 
  0.00000000E+00  0.00000000E+00  0.00000000E+00
  0.00000000E+00  0.00000000E+00  0.00000000E+00
  0.00000000E+00  0.00000000E+00  0.00000000E+00
  0.00000000E+00  0.00000000E+00  0.00000000E+00
  0.00000000E+00  0.00000000E+00  0.00000000E+00
  0.00000000E+00  0.00000000E+00  0.00000000E+00
  0.00000000E+00  0.00000000E+00  0.00000000E+00
  0.00000000E+00  0.00000000E+00  0.00000000E+00
  0.00000000E+00  0.00000000E+00  0.00000000E+00
  0.00000000E+00  0.00000000E+00  0.00000000E+00
  0.00000000E+00  0.00000000E+00  0.00000000E+00
  0.00000000E+00  0.00000000E+00  0.00000000E+00
  0.00000000E+00  0.00000000E+00  0.00000000E+00
  0.00000000E+00  0.00000000E+00  0.00000000E+00
  0.00000000E+00  0.00000000E+00  0.00000000E+00
  0.00000000E+00  0.00000000E+00  0.00000000E+00
  0.00000000E+00  0.00000000E+00  0.00000000E+00
  0.00000000E+00  0.00000000E+00  0.00000000E+00
  0.00000000E+00  0.00000000E+00  0.00000000E+00
  0.00000000E+00  0.00000000E+00  0.00000000E+00
  0.00000000E+00  0.00000000E+00  0.00000000E+00
  0.00000000E+00  0.00000000E+00  0.00000000E+00
  0.00000000E+00  0.00000000E+00  0.00000000E+00
  0.00000000E+00  0.00000000E+00  0.00000000E+00
  0.00000000E+00  0.00000000E+00  0.00000000E+00
  0.00000000E+00  0.00000000E+00  0.00000000E+00
  0.00000000E+00  0.00000000E+00  0.00000000E+00
  0.00000000E+00  0.00000000E+00  0.00000000E+00
  0.00000000E+00  0.00000000E+00  0.00000000E+00
  0.00000000E+00  0.00000000E+00  0.00000000E+00
  0.00000000E+00  0.00000000E+00  0.00000000E+00
  0.00000000E+00  0.00000000E+00  0.00000000E+00
  0.00000000E+00  0.00000000E+00  0.00000000E+00
  0.00000000E+00  0.00000000E+00  0.00000000E+00
  0.00000000E+00  0.00000000E+00  0.00000000E+00
  0.00000000E+00  0.00000000E+00  0.00000000E+00
  0.00000000E+00  0.00000000E+00  0.00000000E+00
  0.00000000E+00  0.00000000E+00  0.00000000E+00
  0.00000000E+00  0.00000000E+00  0.00000000E+00
  0.00000000E+00  0.00000000E+00  0.00000000E+00
  0.00000000E+00  0.00000000E+00  0.00000000E+00
  0.00000000E+00  0.00000000E+00  0.00000000E+00
  0.00000000E+00  0.00000000E+00  0.00000000E+00
  0.00000000E+00  0.00000000E+00  0.00000000E+00
  0.00000000E+00  0.00000000E+00  0.00000000E+00
  0.00000000E+00  0.00000000E+00  0.00000000E+00
  0.00000000E+00  0.00000000E+00  0.00000000E+00
  0.00000000E+00  0.00000000E+00  0.00000000E+00
  0.00000000E+00  0.00000000E+00  0.00000000E+00
  0.00000000E+00  0.00000000E+00  0.00000000E+00
  0.00000000E+00  0.00000000E+00  0.00000000E+00
  0.00000000E+00  0.00000000E+00  0.00000000E+00
  0.00000000E+00  0.00000000E+00  0.00000000E+00
  0.00000000E+00  0.00000000E+00  0.00000000E+00
  0.00000000E+00  0.00000000E+00  0.00000000E+00
  0.00000000E+00  0.00000000E+00  0.00000000E+00
  0.00000000E+00  0.00000000E+00  0.00000000E+00
  0.00000000E+00  0.00000000E+00  0.00000000E+00
  0.00000000E+00  0.00000000E+00  0.00000000E+00
  0.00000000E+00  0.00000000E+00  0.00000000E+00
  0.00000000E+00  0.00000000E+00  0.00000000E+00
  0.00000000E+00  0.00000000E+00  0.00000000E+00
  0.00000000E+00  0.00000000E+00  0.00000000E+00
  0.00000000E+00  0.00000000E+00  0.00000000E+00
  0.00000000E+00  0.00000000E+00  0.00000000E+00
  0.00000000E+00  0.00000000E+00  0.00000000E+00
  0.00000000E+00  0.00000000E+00  0.00000000E+00
  0.00000000E+00  0.00000000E+00  0.00000000E+00
  0.00000000E+00  0.00000000E+00  0.00000000E+00
  0.00000000E+00  0.00000000E+00  0.00000000E+00
  0.00000000E+00  0.00000000E+00  0.00000000E+00
  0.00000000E+00  0.00000000E+00  0.00000000E+00
