Li8 Mn16 O48
1.0
9.996316 0.000009 0.001784
-4.998165 8.657059 -0.002284
-0.001468 0.001322 8.225567
Li Mn O
8 16 48
direct
-0.000730 -0.000012 -0.000272 Li
-0.001641 -0.002690 0.498989 Li
0.002974 0.499695 -0.000264 Li
-0.003293 0.499691 0.500253 Li
0.498949 -0.002686 0.001012 Li
0.500721 0.000001 0.500247 Li
0.508293 0.507836 -0.005036 Li
0.499533 0.507842 0.505024 Li
0.166481 0.336981 0.264020 Mn
0.167340 0.332495 0.748978 Mn
0.163486 0.827020 0.249986 Mn
0.165381 0.830721 0.749980 Mn
0.670487 0.336989 0.235998 Mn
0.665156 0.332510 0.751042 Mn
0.667002 0.834001 0.250008 Mn
0.667441 0.834887 0.750010 Mn
0.326080 0.152161 0.250008 Mn
0.332073 0.164130 0.749990 Mn
0.334105 0.667182 0.253582 Mn
0.334106 0.666408 0.752700 Mn
0.832739 0.165472 0.250002 Mn
0.833657 0.167309 0.750007 Mn
0.833065 0.667183 0.246429 Mn
0.832352 0.666449 0.747269 Mn
0.367761 0.348320 0.167427 O
0.323788 0.320775 0.626460 O
0.319421 0.818125 0.127394 O
0.321717 0.820498 0.629521 O
0.821426 0.319071 0.122002 O
0.820936 0.322383 0.628490 O
0.822136 0.822981 0.126344 O
0.820043 0.820825 0.624400 O
0.177746 0.995308 0.123528 O
0.177441 0.997403 0.626175 O
0.181180 0.497901 0.131743 O
0.179274 0.500729 0.628148 O
0.679887 1.000425 0.125916 O
0.679010 1.001180 0.626704 O
0.687728 0.503666 0.112822 O
0.674860 0.497394 0.625259 O
0.005373 0.181012 0.131894 O
-0.000408 0.177658 0.626348 O
-0.000451 0.676667 0.125445 O
-0.001101 0.677203 0.625413 O
0.498246 0.172964 0.129239 O
0.499862 0.173321 0.633489 O
0.499843 0.678297 0.129585 O
0.500484 0.680060 0.629057 O
0.317516 -0.004692 0.376459 O
0.319990 -0.002592 0.873791 O
0.315974 0.503647 0.387220 O
0.322513 0.497370 0.874728 O
0.820554 0.000440 0.374079 O
0.822124 0.001186 0.873312 O
0.816756 0.497906 0.368248 O
0.821462 0.500774 0.871843 O
0.174670 0.172941 0.370760 O
0.173443 0.173287 0.866527 O
0.177111 0.676721 0.374575 O
0.178314 0.677178 0.874539 O
0.675642 0.181017 0.368109 O
0.678079 0.177648 0.873677 O
0.678455 0.678254 0.370436 O
0.679647 0.680109 0.870984 O
0.997657 0.319083 0.378027 O
1.001441 0.322382 0.871516 O
0.998674 0.818195 0.372531 O
0.998845 0.820521 0.870437 O
0.480611 0.348321 0.332628 O
0.496961 0.320775 0.873533 O
0.500841 0.822990 0.373684 O
0.500761 0.820799 0.875590 O
