Li8 Mn16 O48
1.0
9.996316 0.000009 0.001784
-4.998165 8.657059 -0.002284
-0.001468 0.001322 8.225567
Li Mn O
8 16 48
direct
0.004931 0.004915 0.000383 Li
-0.010987 -0.010956 0.506886 Li
0.000017 0.500071 0.000009 Li
-0.001669 0.501484 0.499964 Li
0.499983 -0.000071 -0.000009 Li
0.501669 -0.001484 0.500036 Li
0.495069 0.495085 -0.000383 Li
0.510987 0.510956 0.493114 Li
0.170392 0.344654 0.258730 Mn
0.155293 0.329643 0.741298 Mn
0.166275 0.837153 0.250771 Mn
0.164653 0.825820 0.751521 Mn
0.674204 0.335340 0.248399 Mn
0.662833 0.333755 0.749361 Mn
0.667390 0.833849 0.243282 Mn
0.666206 0.832595 0.756715 Mn
0.344707 0.170357 0.258702 Mn
0.329608 0.155346 0.741270 Mn
0.335347 0.674180 0.248479 Mn
0.333725 0.662847 0.749229 Mn
0.837167 0.166245 0.250639 Mn
0.825796 0.164660 0.751601 Mn
0.833794 0.667405 0.243285 Mn
0.832610 0.666151 0.756718 Mn
0.325432 0.325384 0.145982 O
0.292085 0.292182 0.570274 O
0.320914 0.826800 0.125634 O
0.321713 0.818182 0.628755 O
0.826865 0.320983 0.125539 O
0.818012 0.321619 0.628763 O
0.819278 0.819270 0.117939 O
0.822106 0.822105 0.635212 O
0.178477 1.011945 0.141845 O
0.173247 0.988020 0.623842 O
0.178202 0.500385 0.131519 O
0.177566 0.501021 0.621601 O
0.684795 1.003437 0.121526 O
0.673019 0.996618 0.632759 O
0.681280 0.497552 0.120525 O
0.676113 0.503117 0.631428 O
0.011995 0.178584 0.141618 O
-0.011986 0.173351 0.623930 O
0.003494 0.684835 0.121728 O
-0.003518 0.672922 0.632676 O
0.500300 0.178219 0.131447 O
0.500999 0.177853 0.621562 O
0.497589 0.681255 0.120660 O
0.503065 0.676146 0.631395 O
0.322434 -0.001021 0.378399 O
0.321798 -0.000385 0.868481 O
0.326753 0.511980 0.376158 O
0.321523 0.488055 0.858155 O
0.823887 -0.003117 0.368572 O
0.818720 0.002448 0.879475 O
0.826981 0.503382 0.367241 O
0.815205 0.496563 0.878474 O
0.207915 0.207818 0.429726 O
0.174568 0.174616 0.854018 O
0.178287 0.681818 0.371245 O
0.179086 0.673200 0.874366 O
0.681988 0.178381 0.371237 O
0.673135 0.179017 0.874461 O
0.677894 0.677895 0.364788 O
0.680722 0.680730 0.882061 O
0.999001 0.322147 0.378438 O
0.999700 0.321781 0.868553 O
0.996935 0.823854 0.368605 O
1.002411 0.818745 0.879340 O
0.511986 0.326649 0.376070 O
0.488005 0.321416 0.858382 O
0.503518 0.827078 0.367324 O
0.496506 0.815165 0.878272 O
