Li8 Mn16 O48                            
   1.00000000000000     
     9.9963160000000002    0.0000090000000000    0.0017840000000000
    -4.9981650000000002    8.6570590000000003   -0.0022840000000000
    -0.0014680000000000    0.0013220000000000    8.2255669999999999
   Li   Mn   O 
     8    16    48
Direct
  0.9988187562910392  1.0003756366773202  0.9999086414356424
  0.9978034798084338  0.9977268948469538  0.5000989084174735
  0.0020161728198779  0.4998729984045162  0.9994636338952100
  0.9978666958343992  0.4998484590569500  0.5005236826053400
  0.4999435945428863  0.9977421768014487 -0.0001594935811704
  0.5015348454400154  0.0004931322982200  0.5002765241447485
  0.5085342917936414  0.5079713456410774  0.9970947535078650
  0.4994581842458216  0.5079667312948233  0.5029080565843685
  0.1684327197162160  0.3379366239517029  0.2660294718985754
  0.1674232727610815  0.3316350222587434  0.7487289056020858
  0.1620076995561684  0.8239615415722037  0.2500125127384495
  0.1644455713937391  0.8289257112555164  0.7500326306383891
  0.6694652791770551  0.3379453012593009  0.2339763672981235
  0.6641843732926990  0.3315455494604064  0.7512185759497542
  0.6684186777865254  0.8368174134722390  0.2500276566574670
  0.6675757270840146  0.8351196791010851  0.7499679487128736
  0.3222567809308047  0.1445035417834468  0.2499939773087189
  0.3312401225197373  0.1624826401719222  0.7500242177513936
  0.3357234397216930  0.6681933812241040  0.2520148648794200
  0.3345065659087361  0.6657830870312333  0.7520932277718611
  0.8339898675164096  0.1680293030794793  0.2500013566314849
  0.8340001815416304  0.1679571990276520  0.7499600550993061
  0.8325000790653535  0.6681965747676712  0.2480314695085729
  0.8312324176022946  0.6657167202707605  0.7478775185261198
  0.3797227584070974  0.3517541041194721  0.1793205736389944
  0.3224611025566783  0.3183853552185564  0.6251704748655291
  0.3189134331104784  0.8175150339736318  0.1258889486561914
  0.3206739596096461  0.8188664005531711  0.6282754210267021
  0.8217921743921682  0.3219830018702218  0.1234005747960779
  0.8209280496620303  0.3226943502107936  0.6283680607570467
  0.8235039746301397  0.8250759361999631  0.1273545542702536
  0.8205564891815104  0.8212421132214035  0.6252333797585130
  0.1753783849952189  0.9924451725094797  0.1236866390842497
  0.1761143375213420  0.9957291333136528  0.6268233631378719
  0.1847081257845295  0.4974761825030343  0.1299155285847175
  0.1807106357127251  0.5004662965195878  0.6272203742144787
  0.6816681160549253  0.0031868921702329  0.1255911214107555
  0.6795199548482764  0.0017883570732256  0.6264606379231827
  0.6880098436273484  0.5053191160194683  0.1122869337593296
  0.6729376712827371  0.4960762964295060  0.6249780603653696
  0.0075633677882680  0.1827366929403636  0.1324360568913309
  0.9994792993062321  0.1782290086107940  0.6258400600315934
  0.9980624974053047  0.6749736763212911  0.1267228066074480
  0.9975651821038571  0.6756369379566771  0.6259237273042229
  0.4971707078516712  0.1707269999453186  0.1281093456297351
  0.4993201652551565  0.1730728066571190  0.6329880924895398
  0.5019122428268666  0.6813456368979417  0.1277651984829521
  0.5011833645572402  0.6799354045948404  0.6286010825982320
  0.3171097310184906  0.9924585575819189  0.3762926780517970
  0.3195478352030525  0.9957544706946134  0.8732739977650678
  0.3172869056116172  0.5052906169747716  0.3877221974067364
  0.3231811773049615  0.4961631100772892  0.8749676970980218
  0.8214966842723229  0.0032148457349277  0.3744523694553630
  0.8223438878047676  0.0018003830506070  0.8734467760642657
  0.8126081081871179  0.4974464298801576  0.3701990569835784
  0.8197202207200101  0.5003814814368061  0.8727213339771676
  0.1735421810205334  0.1707044550440714  0.3718516026133690
  0.1737868536360582  0.1731479723915785  0.8669938923857959
  0.1769201535181235  0.6749539881471543  0.3732865773230941
  0.1781229556292767  0.6756766197203273  0.8741259320450915
  0.6751328725223209  0.1827304443262563  0.3675661766835265
  0.6787623667726733  0.1781913424508629  0.8741009800069003
  0.6794988994459110  0.6813975076840270  0.3723082060969651
  0.6786781246732182  0.6798697263129164  0.8713086436993929
  1.0001458184231260  0.3219440484717838  0.3766226153569631
  0.0017857533267206  0.3227301349965399  0.8715292488748410
  0.9986547664386493  0.8174516004861687  0.3741814470063759
  0.9981155906983312  0.8187866366736557  0.8717681870197220
  0.4719933827753525  0.3517674528572668  0.3206441580720417
  0.4959695514387614  0.3183770569726515  0.8748318130360095
  0.5015882927285312  0.8250478601936926  0.3727228415927522
  0.5007351447395529  0.8212988632556278  0.8747167560434713
 
  0.00000000E+00  0.00000000E+00  0.00000000E+00
  0.00000000E+00  0.00000000E+00  0.00000000E+00
  0.00000000E+00  0.00000000E+00  0.00000000E+00
  0.00000000E+00  0.00000000E+00  0.00000000E+00
  0.00000000E+00  0.00000000E+00  0.00000000E+00
  0.00000000E+00  0.00000000E+00  0.00000000E+00
  0.00000000E+00  0.00000000E+00  0.00000000E+00
  0.00000000E+00  0.00000000E+00  0.00000000E+00
  0.00000000E+00  0.00000000E+00  0.00000000E+00
  0.00000000E+00  0.00000000E+00  0.00000000E+00
  0.00000000E+00  0.00000000E+00  0.00000000E+00
  0.00000000E+00  0.00000000E+00  0.00000000E+00
  0.00000000E+00  0.00000000E+00  0.00000000E+00
  0.00000000E+00  0.00000000E+00  0.00000000E+00
  0.00000000E+00  0.00000000E+00  0.00000000E+00
  0.00000000E+00  0.00000000E+00  0.00000000E+00
  0.00000000E+00  0.00000000E+00  0.00000000E+00
  0.00000000E+00  0.00000000E+00  0.00000000E+00
  0.00000000E+00  0.00000000E+00  0.00000000E+00
  0.00000000E+00  0.00000000E+00  0.00000000E+00
  0.00000000E+00  0.00000000E+00  0.00000000E+00
  0.00000000E+00  0.00000000E+00  0.00000000E+00
  0.00000000E+00  0.00000000E+00  0.00000000E+00
  0.00000000E+00  0.00000000E+00  0.00000000E+00
  0.00000000E+00  0.00000000E+00  0.00000000E+00
  0.00000000E+00  0.00000000E+00  0.00000000E+00
  0.00000000E+00  0.00000000E+00  0.00000000E+00
  0.00000000E+00  0.00000000E+00  0.00000000E+00
  0.00000000E+00  0.00000000E+00  0.00000000E+00
  0.00000000E+00  0.00000000E+00  0.00000000E+00
  0.00000000E+00  0.00000000E+00  0.00000000E+00
  0.00000000E+00  0.00000000E+00  0.00000000E+00
  0.00000000E+00  0.00000000E+00  0.00000000E+00
  0.00000000E+00  0.00000000E+00  0.00000000E+00
  0.00000000E+00  0.00000000E+00  0.00000000E+00
  0.00000000E+00  0.00000000E+00  0.00000000E+00
  0.00000000E+00  0.00000000E+00  0.00000000E+00
  0.00000000E+00  0.00000000E+00  0.00000000E+00
  0.00000000E+00  0.00000000E+00  0.00000000E+00
  0.00000000E+00  0.00000000E+00  0.00000000E+00
  0.00000000E+00  0.00000000E+00  0.00000000E+00
  0.00000000E+00  0.00000000E+00  0.00000000E+00
  0.00000000E+00  0.00000000E+00  0.00000000E+00
  0.00000000E+00  0.00000000E+00  0.00000000E+00
  0.00000000E+00  0.00000000E+00  0.00000000E+00
  0.00000000E+00  0.00000000E+00  0.00000000E+00
  0.00000000E+00  0.00000000E+00  0.00000000E+00
  0.00000000E+00  0.00000000E+00  0.00000000E+00
  0.00000000E+00  0.00000000E+00  0.00000000E+00
  0.00000000E+00  0.00000000E+00  0.00000000E+00
  0.00000000E+00  0.00000000E+00  0.00000000E+00
  0.00000000E+00  0.00000000E+00  0.00000000E+00
  0.00000000E+00  0.00000000E+00  0.00000000E+00
  0.00000000E+00  0.00000000E+00  0.00000000E+00
  0.00000000E+00  0.00000000E+00  0.00000000E+00
  0.00000000E+00  0.00000000E+00  0.00000000E+00
  0.00000000E+00  0.00000000E+00  0.00000000E+00
  0.00000000E+00  0.00000000E+00  0.00000000E+00
  0.00000000E+00  0.00000000E+00  0.00000000E+00
  0.00000000E+00  0.00000000E+00  0.00000000E+00
  0.00000000E+00  0.00000000E+00  0.00000000E+00
  0.00000000E+00  0.00000000E+00  0.00000000E+00
  0.00000000E+00  0.00000000E+00  0.00000000E+00
  0.00000000E+00  0.00000000E+00  0.00000000E+00
  0.00000000E+00  0.00000000E+00  0.00000000E+00
  0.00000000E+00  0.00000000E+00  0.00000000E+00
  0.00000000E+00  0.00000000E+00  0.00000000E+00
  0.00000000E+00  0.00000000E+00  0.00000000E+00
  0.00000000E+00  0.00000000E+00  0.00000000E+00
  0.00000000E+00  0.00000000E+00  0.00000000E+00
  0.00000000E+00  0.00000000E+00  0.00000000E+00
  0.00000000E+00  0.00000000E+00  0.00000000E+00
