Li8 Mn16 O48
1.0
9.996316 0.000009 0.001784
-4.998165 8.657059 -0.002284
-0.001468 0.001322 8.225567
Li Mn O
8 16 48
direct
-0.000852 -0.000014 -0.000317 Li
-0.001914 -0.003139 0.498821 Li
0.003470 0.499644 -0.000308 Li
-0.003841 0.499639 0.500295 Li
0.498774 -0.003134 0.001181 Li
0.500841 0.000001 0.500289 Li
0.509675 0.509142 -0.005875 Li
0.499455 0.509149 0.505861 Li
0.166450 0.337589 0.266356 Mn
0.167452 0.332355 0.748808 Mn
0.162956 0.825967 0.249984 Mn
0.165167 0.830286 0.749977 Mn
0.671123 0.337598 0.233665 Mn
0.664904 0.332372 0.751216 Mn
0.667058 0.834113 0.250010 Mn
0.667570 0.835146 0.750012 Mn
0.324871 0.149744 0.250009 Mn
0.331863 0.163707 0.749988 Mn
0.334233 0.667267 0.254179 Mn
0.334235 0.666365 0.753149 Mn
0.832641 0.165273 0.250002 Mn
0.833711 0.167416 0.750008 Mn
0.833020 0.667268 0.245834 Mn
0.832188 0.666413 0.746814 Mn
0.375478 0.352796 0.174142 O
0.324176 0.320660 0.626348 O
0.319081 0.817569 0.127437 O
0.321760 0.820338 0.629919 O
0.821420 0.318673 0.121146 O
0.820848 0.322537 0.628715 O
0.822249 0.823234 0.126213 O
0.819807 0.820719 0.623944 O
0.177614 0.994527 0.122927 O
0.177258 0.996970 0.626015 O
0.181620 0.497551 0.132510 O
0.179396 0.500850 0.628316 O
0.680112 1.000496 0.125713 O
0.679088 1.001377 0.626632 O
0.689260 0.504277 0.110436 O
0.674247 0.496960 0.624946 O
0.006268 0.181424 0.132687 O
-0.000476 0.177511 0.626217 O
-0.000527 0.676355 0.125163 O
-0.001285 0.676981 0.625126 O
0.497953 0.172035 0.129590 O
0.499839 0.172451 0.634548 O
0.499817 0.678256 0.129993 O
0.500565 0.680313 0.629377 O
0.316859 -0.005474 0.377058 O
0.319745 -0.003024 0.873945 O
0.315059 0.504255 0.389613 O
0.322689 0.496932 0.875039 O
0.820403 0.000514 0.374282 O
0.822234 0.001383 0.873387 O
0.815972 0.497558 0.367478 O
0.821462 0.500903 0.871673 O
0.174025 0.172008 0.370409 O
0.172593 0.172411 0.865470 O
0.176873 0.676418 0.374859 O
0.178277 0.676951 0.874818 O
0.675159 0.181430 0.367317 O
0.678002 0.177500 0.873813 O
0.678441 0.678206 0.370031 O
0.679832 0.680370 0.870671 O
0.997267 0.318686 0.378888 O
1.001681 0.322536 0.871291 O
0.998453 0.817651 0.372475 O
0.998652 0.820364 0.870033 O
0.477380 0.352798 0.325922 O
0.496455 0.320661 0.873644 O
0.500981 0.823245 0.373821 O
0.500888 0.820688 0.876044 O
