Li8 Mn16 O48                            
   1.00000000000000     
     9.9963160000000002    0.0000090000000000    0.0017840000000000
    -4.9981650000000002    8.6570590000000003   -0.0022840000000000
    -0.0014680000000000    0.0013220000000000    8.2255669999999999
   Li   Mn   O 
     8    16    48
Direct
  0.0007369422101654  0.0007891436497391  0.0018421153211111
  0.9986624698359574  0.9986851074847581  0.5009956403821119
  0.0003833801090581  0.4996762249261739 -0.0000026377906933
  0.9994795647998106  0.5004949434056994  0.4999527646071263
  0.4995958246893839  1.0003245076645400  1.0000301354787318
  0.5005444354501952  0.9995569997094148  0.4999192323374675
  0.4992364921052178  0.4991699870935112  0.9981913920634425
  0.5012423136772057  0.5012463198502792  0.4989645262947375
  0.1688813944799010  0.3393125391326810  0.2558649553165361
  0.1605985572856114  0.3310836482849914  0.7442879022157151
  0.1650811938051999  0.8347950799367310  0.2514036758092652
  0.1670386188389859  0.8299930269024145  0.7506889180118500
  0.6701526854687578  0.3331949900273331  0.2493842574336141
  0.6652005828583766  0.3348915602590316  0.7483786664607864
  0.6655055569813507  0.8319395380964730  0.2473389457003908
  0.6680961524036109  0.8343239109067221  0.7526886292938804
  0.3393156942568950  0.1688986784273774  0.2559085174986156
  0.3311149176578316  0.1607798768742429  0.7441262387086393
  0.3330860873597295  0.6700964288923379  0.2492413110597203
  0.3349397064642430  0.6651972445508519  0.7485215063716318
  0.8347965747693734  0.1651434874583159  0.2515492965403837
  0.8297576932480826  0.1667244393508737  0.7507593408196694
  0.8319098620829888  0.6656296980918923  0.2472576301716883
  0.8345797931775604  0.6680751378426228  0.7526173032509457
  0.3232165245654213  0.3232013275695241  0.1359127385115425
  0.3043600692575141  0.3044997294903666  0.5967961507647396
  0.3196723139392803  0.8237732399055847  0.1261614953176440
  0.3227178668825800  0.8202706094337349  0.6275043157063036
  0.8238091751950420  0.3197922562320938  0.1263613381261504
  0.8200712505128607  0.3223425708103135  0.6273452046472857
  0.8186339500932581  0.8187566809677247  0.1229822453940200
  0.8243172317412405  0.8242239244032858  0.6309617076037017
  0.1761142707696338  0.0066159353913677  0.1378659431103196
  0.1767192930328436  0.9934703864808517  0.6244367352141628
  0.1770330654559800  0.4986352650759715  0.1300187968364285
  0.1790298623239502  0.5010976895784911  0.6231193562145459
  0.6807873480039518  0.0007868676779807  0.1252954931614540
  0.6764015335927742  0.9991001253794698  0.6294223916551873
  0.6791219044402018  0.4973013071030583  0.1238041657266501
  0.6785903106549006  0.5032063818985119  0.6280449042727401
  0.0065407475179196  0.1760288231312285  0.1379171026074203
  0.9933806072158413  0.1764829642947446  0.6246999775576314
  0.0007031906873999  0.6809330001845173  0.1251114730883794
  0.9994357510933130  0.6764773647658971  0.6294619240342423
  0.4987095602733182  0.1770985657759415  0.1301745045335154
  0.5010588387166954  0.1792186670142223  0.6228780619699740
  0.4972834432442871  0.6790863142166753  0.1237899218535444
  0.5031705298204385  0.6783304235010025  0.6281953661522640
  0.3208701365800159  0.9988453723068390  0.3769687680343358
  0.3230799557018343  1.0014707616754295  0.8698731876776775
  0.3233293826395301  0.5066048124772962  0.3754890096551060
  0.3238949506185732  0.4934015851308071  0.8621754611341633
  0.8214824747332997  0.9968298797400850  0.3718459427107963
  0.8207343979161501  0.0025821055992501  0.8763326942492033
  0.8235602982175165  0.5008713751077738  0.3706289909507041
  0.8192442434098730  0.4992126919517011  0.8746331285622624
  0.1955990134642547  0.1956524170921041  0.4033272990941801
  0.1768902440348969  0.1768820195474143  0.8642708863737764
  0.1773634983780568  0.6797375424466650  0.3723903169677164
  0.1804339543781526  0.6763195702144256  0.8738022224573954
  0.6799093711150580  0.1775754495133633  0.3726704548850078
  0.6760175825521152  0.1801813080422520  0.8736170459915176
  0.6757040133283373  0.6757549030694796  0.3689602127824992
  0.6813172541395150  0.6811408273591736  0.8769041910540309
  0.9988934288938781  0.3209321983851716  0.3769437572824726
  1.0011800503773909  0.3227571959829549  0.8700867837713769
  0.9968324615312262  0.8216522452899943  0.3716581542891003
  0.0027940431774742  0.8209284730528147  0.8761926543360122
  0.5065782500430177  0.3233205144596364  0.3756542836812796
  0.4934865514949575  0.3240170381840665  0.8620749239456589
  0.5006815750588146  0.8235485749812436  0.3705278413176501
  0.4993077352794738  0.8190281993126751  0.8748002113518859
 
  0.00000000E+00  0.00000000E+00  0.00000000E+00
  0.00000000E+00  0.00000000E+00  0.00000000E+00
  0.00000000E+00  0.00000000E+00  0.00000000E+00
  0.00000000E+00  0.00000000E+00  0.00000000E+00
  0.00000000E+00  0.00000000E+00  0.00000000E+00
  0.00000000E+00  0.00000000E+00  0.00000000E+00
  0.00000000E+00  0.00000000E+00  0.00000000E+00
  0.00000000E+00  0.00000000E+00  0.00000000E+00
  0.00000000E+00  0.00000000E+00  0.00000000E+00
  0.00000000E+00  0.00000000E+00  0.00000000E+00
  0.00000000E+00  0.00000000E+00  0.00000000E+00
  0.00000000E+00  0.00000000E+00  0.00000000E+00
  0.00000000E+00  0.00000000E+00  0.00000000E+00
  0.00000000E+00  0.00000000E+00  0.00000000E+00
  0.00000000E+00  0.00000000E+00  0.00000000E+00
  0.00000000E+00  0.00000000E+00  0.00000000E+00
  0.00000000E+00  0.00000000E+00  0.00000000E+00
  0.00000000E+00  0.00000000E+00  0.00000000E+00
  0.00000000E+00  0.00000000E+00  0.00000000E+00
  0.00000000E+00  0.00000000E+00  0.00000000E+00
  0.00000000E+00  0.00000000E+00  0.00000000E+00
  0.00000000E+00  0.00000000E+00  0.00000000E+00
  0.00000000E+00  0.00000000E+00  0.00000000E+00
  0.00000000E+00  0.00000000E+00  0.00000000E+00
  0.00000000E+00  0.00000000E+00  0.00000000E+00
  0.00000000E+00  0.00000000E+00  0.00000000E+00
  0.00000000E+00  0.00000000E+00  0.00000000E+00
  0.00000000E+00  0.00000000E+00  0.00000000E+00
  0.00000000E+00  0.00000000E+00  0.00000000E+00
  0.00000000E+00  0.00000000E+00  0.00000000E+00
  0.00000000E+00  0.00000000E+00  0.00000000E+00
  0.00000000E+00  0.00000000E+00  0.00000000E+00
  0.00000000E+00  0.00000000E+00  0.00000000E+00
  0.00000000E+00  0.00000000E+00  0.00000000E+00
  0.00000000E+00  0.00000000E+00  0.00000000E+00
  0.00000000E+00  0.00000000E+00  0.00000000E+00
  0.00000000E+00  0.00000000E+00  0.00000000E+00
  0.00000000E+00  0.00000000E+00  0.00000000E+00
  0.00000000E+00  0.00000000E+00  0.00000000E+00
  0.00000000E+00  0.00000000E+00  0.00000000E+00
  0.00000000E+00  0.00000000E+00  0.00000000E+00
  0.00000000E+00  0.00000000E+00  0.00000000E+00
  0.00000000E+00  0.00000000E+00  0.00000000E+00
  0.00000000E+00  0.00000000E+00  0.00000000E+00
  0.00000000E+00  0.00000000E+00  0.00000000E+00
  0.00000000E+00  0.00000000E+00  0.00000000E+00
  0.00000000E+00  0.00000000E+00  0.00000000E+00
  0.00000000E+00  0.00000000E+00  0.00000000E+00
  0.00000000E+00  0.00000000E+00  0.00000000E+00
  0.00000000E+00  0.00000000E+00  0.00000000E+00
  0.00000000E+00  0.00000000E+00  0.00000000E+00
  0.00000000E+00  0.00000000E+00  0.00000000E+00
  0.00000000E+00  0.00000000E+00  0.00000000E+00
  0.00000000E+00  0.00000000E+00  0.00000000E+00
  0.00000000E+00  0.00000000E+00  0.00000000E+00
  0.00000000E+00  0.00000000E+00  0.00000000E+00
  0.00000000E+00  0.00000000E+00  0.00000000E+00
  0.00000000E+00  0.00000000E+00  0.00000000E+00
  0.00000000E+00  0.00000000E+00  0.00000000E+00
  0.00000000E+00  0.00000000E+00  0.00000000E+00
  0.00000000E+00  0.00000000E+00  0.00000000E+00
  0.00000000E+00  0.00000000E+00  0.00000000E+00
  0.00000000E+00  0.00000000E+00  0.00000000E+00
  0.00000000E+00  0.00000000E+00  0.00000000E+00
  0.00000000E+00  0.00000000E+00  0.00000000E+00
  0.00000000E+00  0.00000000E+00  0.00000000E+00
  0.00000000E+00  0.00000000E+00  0.00000000E+00
  0.00000000E+00  0.00000000E+00  0.00000000E+00
  0.00000000E+00  0.00000000E+00  0.00000000E+00
  0.00000000E+00  0.00000000E+00  0.00000000E+00
  0.00000000E+00  0.00000000E+00  0.00000000E+00
  0.00000000E+00  0.00000000E+00  0.00000000E+00
