Li8 Mn16 O48
1.0
9.996316 0.000009 0.001784
-4.998165 8.657059 -0.002284
-0.001468 0.001322 8.225567
Li Mn O
8 16 48
direct
0.002465 0.002458 0.000191 Li
-0.005493 -0.005478 0.503443 Li
0.000009 0.500036 0.000005 Li
-0.000834 0.500742 0.499982 Li
0.499991 -0.000036 -0.000005 Li
0.500834 -0.000742 0.500018 Li
0.497535 0.497542 -0.000191 Li
0.505493 0.505478 0.496557 Li
0.168530 0.338994 0.254365 Mn
0.160980 0.331488 0.745649 Mn
0.166471 0.835243 0.250385 Mn
0.165660 0.829576 0.750760 Mn
0.670436 0.334336 0.249199 Mn
0.664750 0.333544 0.749680 Mn
0.667029 0.833591 0.246641 Mn
0.666437 0.832964 0.753357 Mn
0.339020 0.168512 0.254351 Mn
0.331470 0.161006 0.745635 Mn
0.334340 0.670424 0.249240 Mn
0.333529 0.664757 0.749615 Mn
0.835250 0.166456 0.250320 Mn
0.829564 0.165664 0.750801 Mn
0.833563 0.667036 0.246643 Mn
0.832971 0.666409 0.753359 Mn
0.323446 0.323422 0.136559 O
0.306772 0.306821 0.598704 O
0.321187 0.824130 0.126384 O
0.321587 0.819821 0.627945 O
0.824163 0.321222 0.126337 O
0.819736 0.321539 0.627949 O
0.820369 0.820365 0.122537 O
0.821783 0.821783 0.631174 O
0.178508 1.005973 0.134490 O
0.175893 0.994010 0.625488 O
0.178371 0.500193 0.129327 O
0.178053 0.500510 0.624368 O
0.681667 1.001719 0.124330 O
0.675780 0.998309 0.629947 O
0.679910 0.498776 0.123830 O
0.677326 0.501559 0.629282 O
0.005997 0.178562 0.134376 O
-0.005993 0.175946 0.625532 O
0.001747 0.681688 0.124432 O
-0.001759 0.675731 0.629905 O
0.500150 0.178380 0.129291 O
0.500499 0.178196 0.624349 O
0.498795 0.679898 0.123897 O
0.501532 0.677343 0.629265 O
0.321947 -0.000510 0.375632 O
0.321629 -0.000193 0.870673 O
0.324107 0.505990 0.374512 O
0.321492 0.494027 0.865510 O
0.822674 -0.001559 0.370718 O
0.820090 0.001224 0.876170 O
0.824220 0.501691 0.370053 O
0.818333 0.498281 0.875670 O
0.193228 0.193179 0.401296 O
0.176554 0.176578 0.863441 O
0.178413 0.680179 0.372055 O
0.178813 0.675870 0.873616 O
0.680264 0.178461 0.372051 O
0.675837 0.178778 0.873663 O
0.678217 0.678217 0.368826 O
0.679631 0.679635 0.877463 O
0.999501 0.321804 0.375651 O
0.999850 0.321620 0.870709 O
0.998468 0.822657 0.370735 O
1.001205 0.820102 0.876103 O
0.505993 0.324054 0.374468 O
0.494003 0.321438 0.865624 O
0.501759 0.824269 0.370095 O
0.498253 0.818312 0.875568 O
