Li8 Mn16 O48                            
   1.00000000000000     
     9.9963160000000002    0.0000090000000000    0.0017840000000000
    -4.9981650000000002    8.6570590000000003   -0.0022840000000000
    -0.0014680000000000    0.0013220000000000    8.2255669999999999
   Li   Mn   O 
     8    16    48
Direct
  0.9990975641124268  1.0003167055633289  1.0002614219068064
  0.9979292249538186  0.9977943137425164  0.5000474803400516
  0.0016491564311953  0.4994563791719441  0.9994548737083697
  0.9977856644662134  0.4993830459416526  0.5005255628477387
  0.4998868466185680  0.9978300750760816 -0.0001351985244821
  0.5012427958681943  0.0002973822841431  0.4998599069855530
  0.5068033106401713  0.5063381698181648  0.9987202094234527
  0.4995272954245640  0.5063588667936867  0.5012235912726688
  0.1722903549539994  0.3372359447731337  0.2610414069916815
  0.1673403351261393  0.3317199070947926  0.7489494634664287
  0.1636734021530536  0.8272870223739186  0.2500017915078508
  0.1648125597117958  0.8296368433521477  0.7500233684894555
  0.6649755235947402  0.3373562327088651  0.2389211080947517
  0.6643963993823104  0.3317390970614715  0.7510483730056180
  0.6683433289602374  0.8367522488607743  0.2499868267928163
  0.6675243510984288  0.8350100478108041  0.7499830768556940
  0.3285006127647113  0.1569259644865258  0.2500062225500101
  0.3316023949479655  0.1631953262340479  0.7500136618302244
  0.3353590117936706  0.6677434629753347  0.2519325604642392
  0.3342890160106750  0.6656860135884795  0.7521834082707736
  0.8347558848150562  0.1695821458080132  0.2499788773378985
  0.8339598873802457  0.1679241558171266  0.7500015497095208
  0.8324276853529357  0.6678450780271633  0.2480349551146699
  0.8314188224131096  0.6657106404459769  0.7478381160999575
  0.3485376454438732  0.3415686688569632  0.1551577743036115
  0.3219365327209855  0.3184170480298306  0.6254481950379385
  0.3190198010069006  0.8177166344837751  0.1259172316610880
  0.3208660089555882  0.8192010362992332  0.6284128985056848
  0.8217998355150016  0.3218804860149129  0.1240831099972468
  0.8207318296123336  0.3223916887026289  0.6282495637344114
  0.8232965821765801  0.8247153305020487  0.1272393283056069
  0.8205187086667926  0.8211547089367335  0.6250975779357650
  0.1766834057288038  0.9946958957214344  0.1248678818604794
  0.1765727085676233  0.9961356309188828  0.6266281538558964
  0.1840033296368502  0.4984602432706758  0.1296540396190863
  0.1802678926452796  0.5002009655374114  0.6273786536744148
  0.6813319796358799  0.0027733265709942  0.1256765368976177
  0.6792790660798740  0.0014988504025461  0.6265585696387569
  0.6867651025549202  0.5050594979887769  0.1131861403512962
  0.6741969187265869  0.4969392645997435  0.6256402096162645
  0.0065615943524500  0.1817495359670635  0.1318006064608953
  0.9994481433924958  0.1783914263666152  0.6257300654355801
  0.9983174885828933  0.6753407360607351  0.1269494105049778
  0.9979118445152486  0.6759056863564397  0.6258863053892192
  0.4975589783022278  0.1718277351447029  0.1272800246833946
  0.4992768447050326  0.1733614614749436  0.6326638400888787
  0.5017023962080553  0.6813883882493940  0.1276864165163586
  0.5010009002917836  0.6796295886672298  0.6287800007063025
  0.3180801702558452  0.9946872913462785  0.3751425412655806
  0.3194949700606207  0.9961697652489507  0.8734947293950787
  0.3182067647606227  0.5049543933346099  0.3867559537816924
  0.3226647473093259  0.4969100995356776  0.8744121534398304
  0.8213815397897547  0.0027707188464429  0.3742784738301012
  0.8222543453891148  0.0014950335387730  0.8734116076562459
  0.8143747382284460  0.4985613824346693  0.3703744948435965
  0.8199291852021237  0.5002324515144272  0.8726340369662652
  0.1743048209164661  0.1717950389979121  0.3727262914978291
  0.1741463218119056  0.1734229775961548  0.8673971818720203
  0.1769775206400268  0.6752745724522451  0.3730219149092018
  0.1780699501586208  0.6759565734816403  0.8742106093447211
  0.6751968280057429  0.1818405224411400  0.3681727585420140
  0.6789853224406135  0.1784445707009744  0.8742931538150543
  0.6796716359079493  0.6814084606912874  0.3722570176857403
  0.6786868649471567  0.6796841831229565  0.8712334914622875
  1.0000333093793050  0.3217402842948295  0.3759501870217624
  0.0016562597054976  0.3223848432213675  0.8717469386592777
  0.9987541381826385  0.8177359422918709  0.3740903753464041
  0.9983312491012208  0.8191726348722060  0.8716698104600462
  0.4930361525489722  0.3416148371221152  0.3447953395603197
  0.4965180904949628  0.3185110113247421  0.8744794192811883
  0.5013439740157269  0.8245322070938637  0.3728260801089640
  0.5006787156916228  0.8211674612689241  0.8748638274633417
 
  0.00000000E+00  0.00000000E+00  0.00000000E+00
  0.00000000E+00  0.00000000E+00  0.00000000E+00
  0.00000000E+00  0.00000000E+00  0.00000000E+00
  0.00000000E+00  0.00000000E+00  0.00000000E+00
  0.00000000E+00  0.00000000E+00  0.00000000E+00
  0.00000000E+00  0.00000000E+00  0.00000000E+00
  0.00000000E+00  0.00000000E+00  0.00000000E+00
  0.00000000E+00  0.00000000E+00  0.00000000E+00
  0.00000000E+00  0.00000000E+00  0.00000000E+00
  0.00000000E+00  0.00000000E+00  0.00000000E+00
  0.00000000E+00  0.00000000E+00  0.00000000E+00
  0.00000000E+00  0.00000000E+00  0.00000000E+00
  0.00000000E+00  0.00000000E+00  0.00000000E+00
  0.00000000E+00  0.00000000E+00  0.00000000E+00
  0.00000000E+00  0.00000000E+00  0.00000000E+00
  0.00000000E+00  0.00000000E+00  0.00000000E+00
  0.00000000E+00  0.00000000E+00  0.00000000E+00
  0.00000000E+00  0.00000000E+00  0.00000000E+00
  0.00000000E+00  0.00000000E+00  0.00000000E+00
  0.00000000E+00  0.00000000E+00  0.00000000E+00
  0.00000000E+00  0.00000000E+00  0.00000000E+00
  0.00000000E+00  0.00000000E+00  0.00000000E+00
  0.00000000E+00  0.00000000E+00  0.00000000E+00
  0.00000000E+00  0.00000000E+00  0.00000000E+00
  0.00000000E+00  0.00000000E+00  0.00000000E+00
  0.00000000E+00  0.00000000E+00  0.00000000E+00
  0.00000000E+00  0.00000000E+00  0.00000000E+00
  0.00000000E+00  0.00000000E+00  0.00000000E+00
  0.00000000E+00  0.00000000E+00  0.00000000E+00
  0.00000000E+00  0.00000000E+00  0.00000000E+00
  0.00000000E+00  0.00000000E+00  0.00000000E+00
  0.00000000E+00  0.00000000E+00  0.00000000E+00
  0.00000000E+00  0.00000000E+00  0.00000000E+00
  0.00000000E+00  0.00000000E+00  0.00000000E+00
  0.00000000E+00  0.00000000E+00  0.00000000E+00
  0.00000000E+00  0.00000000E+00  0.00000000E+00
  0.00000000E+00  0.00000000E+00  0.00000000E+00
  0.00000000E+00  0.00000000E+00  0.00000000E+00
  0.00000000E+00  0.00000000E+00  0.00000000E+00
  0.00000000E+00  0.00000000E+00  0.00000000E+00
  0.00000000E+00  0.00000000E+00  0.00000000E+00
  0.00000000E+00  0.00000000E+00  0.00000000E+00
  0.00000000E+00  0.00000000E+00  0.00000000E+00
  0.00000000E+00  0.00000000E+00  0.00000000E+00
  0.00000000E+00  0.00000000E+00  0.00000000E+00
  0.00000000E+00  0.00000000E+00  0.00000000E+00
  0.00000000E+00  0.00000000E+00  0.00000000E+00
  0.00000000E+00  0.00000000E+00  0.00000000E+00
  0.00000000E+00  0.00000000E+00  0.00000000E+00
  0.00000000E+00  0.00000000E+00  0.00000000E+00
  0.00000000E+00  0.00000000E+00  0.00000000E+00
  0.00000000E+00  0.00000000E+00  0.00000000E+00
  0.00000000E+00  0.00000000E+00  0.00000000E+00
  0.00000000E+00  0.00000000E+00  0.00000000E+00
  0.00000000E+00  0.00000000E+00  0.00000000E+00
  0.00000000E+00  0.00000000E+00  0.00000000E+00
  0.00000000E+00  0.00000000E+00  0.00000000E+00
  0.00000000E+00  0.00000000E+00  0.00000000E+00
  0.00000000E+00  0.00000000E+00  0.00000000E+00
  0.00000000E+00  0.00000000E+00  0.00000000E+00
  0.00000000E+00  0.00000000E+00  0.00000000E+00
  0.00000000E+00  0.00000000E+00  0.00000000E+00
  0.00000000E+00  0.00000000E+00  0.00000000E+00
  0.00000000E+00  0.00000000E+00  0.00000000E+00
  0.00000000E+00  0.00000000E+00  0.00000000E+00
  0.00000000E+00  0.00000000E+00  0.00000000E+00
  0.00000000E+00  0.00000000E+00  0.00000000E+00
  0.00000000E+00  0.00000000E+00  0.00000000E+00
  0.00000000E+00  0.00000000E+00  0.00000000E+00
  0.00000000E+00  0.00000000E+00  0.00000000E+00
  0.00000000E+00  0.00000000E+00  0.00000000E+00
  0.00000000E+00  0.00000000E+00  0.00000000E+00
