Li8 Mn16 O48
1.0
9.996316 0.000009 0.001784
-4.998165 8.657059 -0.002284
-0.001468 0.001322 8.225567
Li Mn O
8 16 48
direct
-0.000487 -0.000008 -0.000181 Li
-0.001094 -0.001794 0.499326 Li
0.001983 0.499797 -0.000176 Li
-0.002195 0.499794 0.500169 Li
0.499300 -0.001791 0.000675 Li
0.500481 0.000001 0.500165 Li
0.505529 0.505224 -0.003357 Li
0.499688 0.505228 0.503349 Li
0.166543 0.335765 0.259346 Mn
0.167116 0.332774 0.749319 Mn
0.164547 0.829124 0.249990 Mn
0.165810 0.831592 0.749986 Mn
0.669214 0.335770 0.240665 Mn
0.665660 0.332784 0.750694 Mn
0.666891 0.833779 0.250005 Mn
0.667183 0.834369 0.750007 Mn
0.328497 0.156996 0.250005 Mn
0.332493 0.164975 0.749993 Mn
0.333847 0.667010 0.252388 Mn
0.333848 0.666494 0.751800 Mn
0.832937 0.165870 0.250001 Mn
0.833549 0.167095 0.750005 Mn
0.833154 0.667011 0.247620 Mn
0.832679 0.666522 0.748180 Mn
0.352327 0.339367 0.153996 O
0.323012 0.321003 0.626685 O
0.320101 0.819237 0.127308 O
0.321631 0.820819 0.628726 O
0.821437 0.319868 0.123713 O
0.821111 0.322075 0.628038 O
0.821911 0.822474 0.126608 O
0.820515 0.821037 0.625312 O
0.178011 0.996872 0.124730 O
0.177808 0.998268 0.626495 O
0.180300 0.498601 0.130207 O
0.179029 0.500486 0.627810 O
0.679438 1.000284 0.126322 O
0.678853 1.000787 0.626848 O
0.684666 0.502444 0.117593 O
0.676087 0.498263 0.625884 O
0.003582 0.180188 0.130307 O
-0.000272 0.177952 0.626611 O
-0.000301 0.677291 0.126008 O
-0.000734 0.677649 0.625987 O
0.498830 0.174822 0.128538 O
0.499908 0.175060 0.631371 O
0.499895 0.678378 0.128768 O
0.500323 0.679553 0.628416 O
0.318831 -0.003128 0.375261 O
0.320480 -0.001728 0.873482 O
0.317803 0.502432 0.382435 O
0.322162 0.498247 0.874107 O
0.820856 0.000294 0.373675 O
0.821903 0.000791 0.873163 O
0.818324 0.498604 0.369787 O
0.821461 0.500516 0.872184 O
0.175960 0.174807 0.371462 O
0.175142 0.175038 0.868639 O
0.177588 0.677327 0.374005 O
0.178389 0.677632 0.873981 O
0.676608 0.180191 0.369695 O
0.678233 0.177945 0.873407 O
0.678483 0.678349 0.371246 O
0.679278 0.679586 0.871611 O
0.998438 0.319875 0.376307 O
1.000960 0.322075 0.871966 O
0.999116 0.819283 0.372642 O
0.999230 0.820834 0.871247 O
0.487074 0.339368 0.346040 O
0.497974 0.321004 0.873310 O
0.500560 0.822480 0.373411 O
0.500507 0.821019 0.874682 O
