Li8 Mn16 O48
1.0
9.996316 0.000009 0.001784
-4.998165 8.657059 -0.002284
-0.001468 0.001322 8.225567
Li Mn O
8 16 48
direct
0.000000 0.000000 0.000000 Li
0.000000 0.000000 0.500000 Li
0.000000 0.500000 0.000000 Li
0.000000 0.500000 0.500000 Li
0.500000 0.000000 -0.000000 Li
0.500000 0.000000 0.500000 Li
0.500000 0.500000 -0.000000 Li
0.500000 0.500000 0.500000 Li
0.166667 0.333333 0.249999 Mn
0.166667 0.333333 0.749999 Mn
0.166667 0.833333 0.249999 Mn
0.166667 0.833333 0.749999 Mn
0.666667 0.333333 0.249999 Mn
0.666667 0.333333 0.749999 Mn
0.666667 0.833333 0.249999 Mn
0.666667 0.833333 0.749999 Mn
0.333333 0.166667 0.250001 Mn
0.333333 0.166667 0.750001 Mn
0.333333 0.666667 0.250001 Mn
0.333333 0.666667 0.750001 Mn
0.833333 0.166667 0.250001 Mn
0.833333 0.166667 0.750001 Mn
0.833333 0.666667 0.250001 Mn
0.833333 0.666667 0.750001 Mn
0.321460 0.321460 0.127135 O
0.321460 0.321460 0.627135 O
0.321460 0.821460 0.127135 O
0.321460 0.821460 0.627135 O
0.821460 0.321460 0.127135 O
0.821460 0.321460 0.627135 O
0.821460 0.821460 0.127135 O
0.821460 0.821460 0.627135 O
0.178540 1.000000 0.127135 O
0.178540 1.000000 0.627135 O
0.178540 0.500000 0.127135 O
0.178540 0.500000 0.627135 O
0.678540 1.000000 0.127135 O
0.678540 1.000000 0.627135 O
0.678540 0.500000 0.127135 O
0.678540 0.500000 0.627135 O
0.000000 0.178540 0.127135 O
0.000000 0.178540 0.627135 O
0.000000 0.678540 0.127135 O
0.000000 0.678540 0.627135 O
0.500000 0.178540 0.127135 O
0.500000 0.178540 0.627135 O
0.500000 0.678540 0.127135 O
0.500000 0.678540 0.627135 O
0.321460 0.000000 0.372865 O
0.321460 0.000000 0.872865 O
0.321460 0.500000 0.372865 O
0.321460 0.500000 0.872865 O
0.821460 0.000000 0.372865 O
0.821460 0.000000 0.872865 O
0.821460 0.500000 0.372865 O
0.821460 0.500000 0.872865 O
0.178540 0.178540 0.372865 O
0.178540 0.178540 0.872865 O
0.178540 0.678540 0.372865 O
0.178540 0.678540 0.872865 O
0.678540 0.178540 0.372865 O
0.678540 0.178540 0.872865 O
0.678540 0.678540 0.372865 O
0.678540 0.678540 0.872865 O
1.000000 0.321460 0.372865 O
1.000000 0.321460 0.872865 O
1.000000 0.821460 0.372865 O
1.000000 0.821460 0.872865 O
0.500000 0.321460 0.372865 O
0.500000 0.321460 0.872865 O
0.500000 0.821460 0.372865 O
0.500000 0.821460 0.872865 O
