Li8 Mn16 O48                            
   1.00000000000000     
     9.9963160000000002    0.0000090000000000    0.0017840000000000
    -4.9981650000000002    8.6570590000000003   -0.0022840000000000
    -0.0014680000000000    0.0013220000000000    8.2255669999999999
   Li   Mn   O 
     8    16    48
Direct
  0.9989872380393831  1.0003349234396413  1.0001255644584788
  0.9979178960700579  0.9978334778717830  0.5001181932894122
  0.0017172624976860  0.4996509740082749  0.9993855195017436
  0.9979236540317977  0.4996007037678404  0.5005968984032004
  0.4999510242322517  0.9978837948975561 -0.0001853625809407
  0.5013505568630388  0.0004273275383004  0.5000730159955966
  0.5072913426690915  0.5068199765495413  0.9982784111504118
  0.4995583354053500  0.5068727391515377  0.5017000131919573
  0.1700006618826405  0.3373571633042848  0.2631811614660579
  0.1673081570004428  0.3314460846938735  0.7488646711484671
  0.1632003863871382  0.8263476816097571  0.2500064385901198
  0.1645507494344480  0.8291409753710175  0.7500330826898003
  0.6673432575065747  0.3373964913521608  0.2367917003017700
  0.6641465409113136  0.3314258793267154  0.7511381377290441
  0.6684423215716429  0.8369021086716961  0.2499920444394951
  0.6675827750305364  0.8351379558753199  0.7499842599336538
  0.3256546579961261  0.1512928915491916  0.2499934364945882
  0.3312935231735901  0.1625823308761576  0.7500204948467120
  0.3355526037047527  0.6680037121188842  0.2519030378483351
  0.3344287171537521  0.6658114191662219  0.7519185708099220
  0.8344525931251372  0.1689487029996652  0.2500024954171223
  0.8339833263445375  0.1679503677843402  0.7499912678387284
  0.8324853460294219  0.6680278162823681  0.2480832421877592
  0.8313534775556940  0.6657808604138038  0.7480879792225201
  0.3595923542924972  0.3440954393450513  0.1623864159963538
  0.3219008382969894  0.3180659263818642  0.6253401012188510
  0.3190141013628786  0.8177337564016446  0.1259057727082884
  0.3205560572997292  0.8189084642051719  0.6281047487983412
  0.8217007461454767  0.3221743524892323  0.1239377715887034
  0.8208017158218589  0.3225950892445922  0.6283680988237963
  0.8234509285139195  0.8248893371243937  0.1273071083122599
  0.8206714624168607  0.8212727131965090  0.6253050528281432
  0.1767943795157988  0.9946940549696357  0.1248051914332544
  0.1763756388693503  0.9959303597415995  0.6266869565916071
  0.1842637893074441  0.4981867536287043  0.1295521903593862
  0.1805634165722433  0.5002227041144931  0.6270034229897258
  0.6815376448115694  0.0030749859487569  0.1256539128203204
  0.6794316589699702  0.0016454743234805  0.6265096651493642
  0.6868912401996931  0.5047992223042835  0.1132992820276089
  0.6735848747395203  0.4965847495731395  0.6256380017730169
  0.0068493958722856  0.1821901423454975  0.1319639490322550
  0.9995016468729984  0.1784819906136000  0.6256492387462428
  0.9983470577485478  0.6753440968250474  0.1269567065518873
  0.9976419056030662  0.6756624087398176  0.6260045894230689
  0.4976587975999352  0.1717582870324911  0.1272905417224691
  0.4993524126740643  0.1737705084736803  0.6319965924035246
  0.5018993086835289  0.6815462114468751  0.1276875586549849
  0.5011513917369215  0.6797800262235636  0.6286118083312916
  0.3179609427278574  0.9947148259787695  0.3751902160314055
  0.3194843811241120  0.9959444672829737  0.8734104025877421
  0.3178635261321586  0.5047472568757804  0.3866676727467046
  0.3229877211001683  0.4966233665839921  0.8743805829117631
  0.8215214924765453  0.0030698066074435  0.3743265856786192
  0.8222606928027252  0.0016430203662946  0.8734534156670329
  0.8138612168913293  0.4981968951119589  0.3704471104882112
  0.8196284403102249  0.5002176691789423  0.8729938748376627
  0.1740988956320090  0.1717354421039441  0.3726869470586768
  0.1745053148931865  0.1738671544921796  0.8681063664708523
  0.1770130118467782  0.6753277892891598  0.3730354408647210
  0.1780739391055246  0.6757177721887041  0.8740523380934222
  0.6753236704028924  0.1822258973770481  0.3680445071137021
  0.6790191655236942  0.1784914293632635  0.8743651026416086
  0.6796498286746142  0.6815441107650352  0.3722726255540980
  0.6786222060911518  0.6797807852707403  0.8713752283036442
  1.0004341599173685  0.3221165780677777  0.3760764684589205
  0.0018034969911550  0.3226485568515293  0.8715750096064816
  0.9987671834112185  0.8177007434681857  0.3741097975722079
  0.9982921776846011  0.8188558706477146  0.8719535051527534
  0.4844761483744246  0.3441621606815241  0.3375060365819960
  0.4962279771865751  0.3181371146724177  0.8746440375663507
  0.5014304653446557  0.8248223276388249  0.3727427040198873
  0.5006406612244586  0.8213159051683239  0.8746570679883310
 
  0.00000000E+00  0.00000000E+00  0.00000000E+00
  0.00000000E+00  0.00000000E+00  0.00000000E+00
  0.00000000E+00  0.00000000E+00  0.00000000E+00
  0.00000000E+00  0.00000000E+00  0.00000000E+00
  0.00000000E+00  0.00000000E+00  0.00000000E+00
  0.00000000E+00  0.00000000E+00  0.00000000E+00
  0.00000000E+00  0.00000000E+00  0.00000000E+00
  0.00000000E+00  0.00000000E+00  0.00000000E+00
  0.00000000E+00  0.00000000E+00  0.00000000E+00
  0.00000000E+00  0.00000000E+00  0.00000000E+00
  0.00000000E+00  0.00000000E+00  0.00000000E+00
  0.00000000E+00  0.00000000E+00  0.00000000E+00
  0.00000000E+00  0.00000000E+00  0.00000000E+00
  0.00000000E+00  0.00000000E+00  0.00000000E+00
  0.00000000E+00  0.00000000E+00  0.00000000E+00
  0.00000000E+00  0.00000000E+00  0.00000000E+00
  0.00000000E+00  0.00000000E+00  0.00000000E+00
  0.00000000E+00  0.00000000E+00  0.00000000E+00
  0.00000000E+00  0.00000000E+00  0.00000000E+00
  0.00000000E+00  0.00000000E+00  0.00000000E+00
  0.00000000E+00  0.00000000E+00  0.00000000E+00
  0.00000000E+00  0.00000000E+00  0.00000000E+00
  0.00000000E+00  0.00000000E+00  0.00000000E+00
  0.00000000E+00  0.00000000E+00  0.00000000E+00
  0.00000000E+00  0.00000000E+00  0.00000000E+00
  0.00000000E+00  0.00000000E+00  0.00000000E+00
  0.00000000E+00  0.00000000E+00  0.00000000E+00
  0.00000000E+00  0.00000000E+00  0.00000000E+00
  0.00000000E+00  0.00000000E+00  0.00000000E+00
  0.00000000E+00  0.00000000E+00  0.00000000E+00
  0.00000000E+00  0.00000000E+00  0.00000000E+00
  0.00000000E+00  0.00000000E+00  0.00000000E+00
  0.00000000E+00  0.00000000E+00  0.00000000E+00
  0.00000000E+00  0.00000000E+00  0.00000000E+00
  0.00000000E+00  0.00000000E+00  0.00000000E+00
  0.00000000E+00  0.00000000E+00  0.00000000E+00
  0.00000000E+00  0.00000000E+00  0.00000000E+00
  0.00000000E+00  0.00000000E+00  0.00000000E+00
  0.00000000E+00  0.00000000E+00  0.00000000E+00
  0.00000000E+00  0.00000000E+00  0.00000000E+00
  0.00000000E+00  0.00000000E+00  0.00000000E+00
  0.00000000E+00  0.00000000E+00  0.00000000E+00
  0.00000000E+00  0.00000000E+00  0.00000000E+00
  0.00000000E+00  0.00000000E+00  0.00000000E+00
  0.00000000E+00  0.00000000E+00  0.00000000E+00
  0.00000000E+00  0.00000000E+00  0.00000000E+00
  0.00000000E+00  0.00000000E+00  0.00000000E+00
  0.00000000E+00  0.00000000E+00  0.00000000E+00
  0.00000000E+00  0.00000000E+00  0.00000000E+00
  0.00000000E+00  0.00000000E+00  0.00000000E+00
  0.00000000E+00  0.00000000E+00  0.00000000E+00
  0.00000000E+00  0.00000000E+00  0.00000000E+00
  0.00000000E+00  0.00000000E+00  0.00000000E+00
  0.00000000E+00  0.00000000E+00  0.00000000E+00
  0.00000000E+00  0.00000000E+00  0.00000000E+00
  0.00000000E+00  0.00000000E+00  0.00000000E+00
  0.00000000E+00  0.00000000E+00  0.00000000E+00
  0.00000000E+00  0.00000000E+00  0.00000000E+00
  0.00000000E+00  0.00000000E+00  0.00000000E+00
  0.00000000E+00  0.00000000E+00  0.00000000E+00
  0.00000000E+00  0.00000000E+00  0.00000000E+00
  0.00000000E+00  0.00000000E+00  0.00000000E+00
  0.00000000E+00  0.00000000E+00  0.00000000E+00
  0.00000000E+00  0.00000000E+00  0.00000000E+00
  0.00000000E+00  0.00000000E+00  0.00000000E+00
  0.00000000E+00  0.00000000E+00  0.00000000E+00
  0.00000000E+00  0.00000000E+00  0.00000000E+00
  0.00000000E+00  0.00000000E+00  0.00000000E+00
  0.00000000E+00  0.00000000E+00  0.00000000E+00
  0.00000000E+00  0.00000000E+00  0.00000000E+00
  0.00000000E+00  0.00000000E+00  0.00000000E+00
  0.00000000E+00  0.00000000E+00  0.00000000E+00
