Li8 Mn16 O48
1.0
9.996316 0.000009 0.001784
-4.998165 8.657059 -0.002284
-0.001468 0.001322 8.225567
Li Mn O
8 16 48
direct
-0.000609 -0.000010 -0.000227 Li
-0.001367 -0.002242 0.499158 Li
0.002479 0.499746 -0.000220 Li
-0.002744 0.499742 0.500211 Li
0.499125 -0.002238 0.000844 Li
0.500601 0.000001 0.500206 Li
0.506911 0.506530 -0.004197 Li
0.499611 0.506535 0.504186 Li
0.166512 0.336373 0.261683 Mn
0.167228 0.332634 0.749148 Mn
0.164016 0.828072 0.249988 Mn
0.165596 0.831157 0.749983 Mn
0.669850 0.336380 0.238332 Mn
0.665408 0.332647 0.750868 Mn
0.666946 0.833890 0.250007 Mn
0.667312 0.834628 0.750008 Mn
0.327289 0.154579 0.250007 Mn
0.332283 0.164553 0.749992 Mn
0.333976 0.667096 0.252985 Mn
0.333977 0.666451 0.752250 Mn
0.832838 0.165671 0.250002 Mn
0.833603 0.167202 0.750006 Mn
0.833110 0.667097 0.247025 Mn
0.832515 0.666486 0.747725 Mn
0.360044 0.343843 0.160712 O
0.323400 0.320889 0.626573 O
0.319761 0.818681 0.127351 O
0.321674 0.820658 0.629123 O
0.821431 0.319469 0.122857 O
0.821023 0.322229 0.628264 O
0.822023 0.822727 0.126476 O
0.820279 0.820931 0.624856 O
0.177878 0.996090 0.124129 O
0.177625 0.997836 0.626335 O
0.180740 0.498251 0.130975 O
0.179151 0.500607 0.627979 O
0.679663 1.000354 0.126119 O
0.678931 1.000983 0.626776 O
0.686197 0.503055 0.115207 O
0.675473 0.497828 0.625572 O
0.004477 0.180600 0.131101 O
-0.000340 0.177805 0.626480 O
-0.000376 0.676979 0.125726 O
-0.000918 0.677426 0.625700 O
0.498538 0.173893 0.128888 O
0.499885 0.174191 0.632430 O
0.499869 0.678337 0.129176 O
0.500403 0.679806 0.628736 O
0.318174 -0.003910 0.375860 O
0.320235 -0.002160 0.873637 O
0.316888 0.503040 0.384828 O
0.322338 0.497808 0.874418 O
0.820705 0.000367 0.373877 O
0.822013 0.000988 0.873238 O
0.817540 0.498255 0.369017 O
0.821461 0.500645 0.872014 O
0.175315 0.173874 0.371111 O
0.174292 0.174162 0.867583 O
0.177349 0.677024 0.374290 O
0.178352 0.677405 0.874260 O
0.676125 0.180604 0.368902 O
0.678156 0.177797 0.873542 O
0.678469 0.678302 0.370841 O
0.679463 0.679847 0.871298 O
0.998048 0.319479 0.377167 O
1.001200 0.322229 0.871741 O
0.998895 0.818739 0.372587 O
0.999037 0.820677 0.870842 O
0.483843 0.343844 0.339334 O
0.497468 0.320890 0.873422 O
0.500701 0.822735 0.373548 O
0.500634 0.820909 0.875136 O
