Li8 Mn16 O48                            
   1.00000000000000     
     9.9963160000000002    0.0000090000000000    0.0017840000000000
    -4.9981650000000002    8.6570590000000003   -0.0022840000000000
    -0.0014680000000000    0.0013220000000000    8.2255669999999999
   Li   Mn   O 
     8    16    48
Direct
  0.0011553638172480  0.0012097959080748  0.0018870881887921
  0.9989921559917471  0.9990855374027752  0.5009207401620788
  0.0004927344988430  0.4994889105440811 -0.0000696310644644
  0.9993792145012378  0.5006817472579025  0.5000045935907282
  0.4994661250102129  1.0005054885596354  1.0000499199318669
  0.5006613222136841  0.9993703791294248  0.4999381334712639
  0.4988580889093695  0.4987966495361897  0.9980318975437288
  0.5009731261031551  0.5008791853466541  0.4990662745581855
  0.1696633523836945  0.3367399152230413  0.2579524882764744
  0.1631436864920414  0.3302047645214412  0.7421513723402764
  0.1656311402892305  0.8355226907368751  0.2514775261022733
  0.1673026475619887  0.8303955174753105  0.7509307408324588
  0.6696924566469944  0.3329354857086956  0.2490750057143287
  0.6645628999331403  0.3344147809161906  0.7483674980503199
  0.6657840957615437  0.8323296790856723  0.2475867758994125
  0.6676553591759271  0.8340454665912899  0.7524752274383157
  0.3367948478850476  0.1697793757677357  0.2579842553806411
  0.3302916112915504  0.1633004969031018  0.7419946696010452
  0.3328038811403162  0.6696349448565487  0.2490306441866268
  0.3344080870098339  0.6644527988498501  0.7484480673189909
  0.8354294414610527  0.1656348495780964  0.2515707420879444
  0.8302290084128694  0.1670339117653296  0.7510387501105164
  0.8323494636505412  0.6659179865864561  0.2474762382300555
  0.8342729799402533  0.6677036305068651  0.7524261099732878
  0.3248453871696561  0.3248786205931185  0.1359376194940567
  0.3098689701443559  0.3099616535171868  0.6092332898495106
  0.3199853535205097  0.8241384227733876  0.1263422400727084
  0.3224894743927116  0.8199567070755147  0.6275189387730238
  0.8240599649918485  0.3199535532338103  0.1263582271598238
  0.8199614377170922  0.3222847761073145  0.6274907730075887
  0.8193003291547182  0.8194223259015686  0.1236122861143078
  0.8238128118323021  0.8237742495408956  0.6306808950794643
  0.1760449999885032  0.0061105034034342  0.1374496747556834
  0.1763644763880420  0.9931386648988427  0.6237688105556334
  0.1769655051162188  0.4987898882899216  0.1306397040834422
  0.1789181455859679  0.5006888066495929  0.6227338645396611
  0.6810888974344472  0.0010348137422667  0.1253914267714259
  0.6760248977450045  0.9989398820016064  0.6296119575528216
  0.6793935026847531  0.4976786525390368  0.1238084065844546
  0.6787918247373291  0.5031195906064698  0.6276528809367710
  0.0059566470179190  0.1759473102661602  0.1374820312419020
  0.9930565547920334  0.1761342069553081  0.6240398344372929
  0.0010611806247925  0.6813291431829058  0.1251896557457412
  0.9991708283496861  0.6761160921802910  0.6296350253203438
  0.4988489628576877  0.1772235598312642  0.1305981075250889
  0.5007647157801323  0.1790732195421718  0.6225462606227685
  0.4975925500413032  0.6793133159994595  0.1238149744797776
  0.5030643271376718  0.6784828935627423  0.6277743741761984
  0.3210206384278140  0.9992511643901579  0.3773240848950979
  0.3230812327782231  1.0012866804598179  0.8692853094675597
  0.3236985726383680  0.5068480875722632  0.3760940907921551
  0.3239637369468402  0.4938956835505585  0.8625655044661706
  0.8212702252218460  0.9969549839765808  0.3723067167831516
  0.8204554153635375  0.0022527517122106  0.8763236188994346
  0.8239592249024589  0.5010604112505759  0.3704096972550763
  0.8188627475196468  0.4989487456648594  0.8746089370157780
  0.1901112857733053  0.1901376423484860  0.3908249325188652
  0.1751922246754456  0.1751398695007391  0.8641670900536905
  0.1775233429344182  0.6799885646452239  0.3723722582053552
  0.1802043507702775  0.6759835562632425  0.8737057811052849
  0.6800778079956517  0.1777351867446711  0.3725594539963765
  0.6757705732859958  0.1799884847557653  0.8735980357469355
  0.6761927934148451  0.6761942242428429  0.3692772053269734
  0.6807040427949306  0.6805976405596924  0.8763917444654812
  0.9992141943898691  0.3210448565700563  0.3772943135303927
  1.0010758440267817  0.3227100338234093  0.8695764927942801
  0.9969576911204379  0.8215191355162990  0.3721055466836919
  0.0024844116120970  0.8206954921499570  0.8761661108135756
  0.5068949580914813  0.3236785750503291  0.3762581465575593
  0.4940122472105538  0.3240801855476144  0.8624706919846310
  0.5008915401931406  0.8238233114238431  0.3704651885209925
  0.4989560627465358  0.8186298911466875  0.8747226613012034
 
  0.00000000E+00  0.00000000E+00  0.00000000E+00
  0.00000000E+00  0.00000000E+00  0.00000000E+00
  0.00000000E+00  0.00000000E+00  0.00000000E+00
  0.00000000E+00  0.00000000E+00  0.00000000E+00
  0.00000000E+00  0.00000000E+00  0.00000000E+00
  0.00000000E+00  0.00000000E+00  0.00000000E+00
  0.00000000E+00  0.00000000E+00  0.00000000E+00
  0.00000000E+00  0.00000000E+00  0.00000000E+00
  0.00000000E+00  0.00000000E+00  0.00000000E+00
  0.00000000E+00  0.00000000E+00  0.00000000E+00
  0.00000000E+00  0.00000000E+00  0.00000000E+00
  0.00000000E+00  0.00000000E+00  0.00000000E+00
  0.00000000E+00  0.00000000E+00  0.00000000E+00
  0.00000000E+00  0.00000000E+00  0.00000000E+00
  0.00000000E+00  0.00000000E+00  0.00000000E+00
  0.00000000E+00  0.00000000E+00  0.00000000E+00
  0.00000000E+00  0.00000000E+00  0.00000000E+00
  0.00000000E+00  0.00000000E+00  0.00000000E+00
  0.00000000E+00  0.00000000E+00  0.00000000E+00
  0.00000000E+00  0.00000000E+00  0.00000000E+00
  0.00000000E+00  0.00000000E+00  0.00000000E+00
  0.00000000E+00  0.00000000E+00  0.00000000E+00
  0.00000000E+00  0.00000000E+00  0.00000000E+00
  0.00000000E+00  0.00000000E+00  0.00000000E+00
  0.00000000E+00  0.00000000E+00  0.00000000E+00
  0.00000000E+00  0.00000000E+00  0.00000000E+00
  0.00000000E+00  0.00000000E+00  0.00000000E+00
  0.00000000E+00  0.00000000E+00  0.00000000E+00
  0.00000000E+00  0.00000000E+00  0.00000000E+00
  0.00000000E+00  0.00000000E+00  0.00000000E+00
  0.00000000E+00  0.00000000E+00  0.00000000E+00
  0.00000000E+00  0.00000000E+00  0.00000000E+00
  0.00000000E+00  0.00000000E+00  0.00000000E+00
  0.00000000E+00  0.00000000E+00  0.00000000E+00
  0.00000000E+00  0.00000000E+00  0.00000000E+00
  0.00000000E+00  0.00000000E+00  0.00000000E+00
  0.00000000E+00  0.00000000E+00  0.00000000E+00
  0.00000000E+00  0.00000000E+00  0.00000000E+00
  0.00000000E+00  0.00000000E+00  0.00000000E+00
  0.00000000E+00  0.00000000E+00  0.00000000E+00
  0.00000000E+00  0.00000000E+00  0.00000000E+00
  0.00000000E+00  0.00000000E+00  0.00000000E+00
  0.00000000E+00  0.00000000E+00  0.00000000E+00
  0.00000000E+00  0.00000000E+00  0.00000000E+00
  0.00000000E+00  0.00000000E+00  0.00000000E+00
  0.00000000E+00  0.00000000E+00  0.00000000E+00
  0.00000000E+00  0.00000000E+00  0.00000000E+00
  0.00000000E+00  0.00000000E+00  0.00000000E+00
  0.00000000E+00  0.00000000E+00  0.00000000E+00
  0.00000000E+00  0.00000000E+00  0.00000000E+00
  0.00000000E+00  0.00000000E+00  0.00000000E+00
  0.00000000E+00  0.00000000E+00  0.00000000E+00
  0.00000000E+00  0.00000000E+00  0.00000000E+00
  0.00000000E+00  0.00000000E+00  0.00000000E+00
  0.00000000E+00  0.00000000E+00  0.00000000E+00
  0.00000000E+00  0.00000000E+00  0.00000000E+00
  0.00000000E+00  0.00000000E+00  0.00000000E+00
  0.00000000E+00  0.00000000E+00  0.00000000E+00
  0.00000000E+00  0.00000000E+00  0.00000000E+00
  0.00000000E+00  0.00000000E+00  0.00000000E+00
  0.00000000E+00  0.00000000E+00  0.00000000E+00
  0.00000000E+00  0.00000000E+00  0.00000000E+00
  0.00000000E+00  0.00000000E+00  0.00000000E+00
  0.00000000E+00  0.00000000E+00  0.00000000E+00
  0.00000000E+00  0.00000000E+00  0.00000000E+00
  0.00000000E+00  0.00000000E+00  0.00000000E+00
  0.00000000E+00  0.00000000E+00  0.00000000E+00
  0.00000000E+00  0.00000000E+00  0.00000000E+00
  0.00000000E+00  0.00000000E+00  0.00000000E+00
  0.00000000E+00  0.00000000E+00  0.00000000E+00
  0.00000000E+00  0.00000000E+00  0.00000000E+00
  0.00000000E+00  0.00000000E+00  0.00000000E+00
