Li8 Mn16 O48
1.0
9.996316 0.000009 0.001784
-4.998165 8.657059 -0.002284
-0.001468 0.001322 8.225567
Li Mn O
8 16 48
direct
0.001849 0.001843 0.000143 Li
-0.004120 -0.004109 0.502582 Li
0.000006 0.500027 0.000003 Li
-0.000626 0.500556 0.499986 Li
0.499994 -0.000027 -0.000003 Li
0.500626 -0.000556 0.500014 Li
0.498151 0.498157 -0.000143 Li
0.504120 0.504109 0.497418 Li
0.168064 0.337579 0.253273 Mn
0.162402 0.331950 0.746736 Mn
0.166520 0.834766 0.250289 Mn
0.165912 0.830516 0.750570 Mn
0.669494 0.334086 0.249399 Mn
0.665229 0.333491 0.749760 Mn
0.666938 0.833527 0.247480 Mn
0.666495 0.833056 0.752518 Mn
0.337598 0.168050 0.253264 Mn
0.331936 0.162421 0.746727 Mn
0.334088 0.669484 0.249430 Mn
0.333480 0.665234 0.749711 Mn
0.834771 0.166509 0.250240 Mn
0.830506 0.165914 0.750601 Mn
0.833505 0.666944 0.247482 Mn
0.833062 0.666473 0.752520 Mn
0.322950 0.322932 0.134203 O
0.310444 0.310481 0.605812 O
0.321255 0.823463 0.126572 O
0.321555 0.820231 0.627742 O
0.823487 0.321281 0.126536 O
0.820167 0.321520 0.627745 O
0.820642 0.820639 0.123687 O
0.821702 0.821702 0.630164 O
0.178516 1.004479 0.132651 O
0.176555 0.995508 0.625900 O
0.178413 0.500144 0.128779 O
0.178174 0.500383 0.625060 O
0.680886 1.001289 0.125032 O
0.676470 0.998732 0.629244 O
0.679567 0.499082 0.124656 O
0.677630 0.501169 0.628745 O
0.004498 0.178556 0.132566 O
-0.004495 0.176594 0.625933 O
0.001310 0.680901 0.125108 O
-0.001319 0.676433 0.629213 O
0.500112 0.178420 0.128752 O
0.500375 0.178282 0.625045 O
0.499096 0.679558 0.124707 O
0.501149 0.677642 0.628732 O
0.321826 -0.000383 0.374940 O
0.321587 -0.000144 0.871221 O
0.323445 0.504492 0.374100 O
0.321484 0.495521 0.867349 O
0.822370 -0.001169 0.371255 O
0.820433 0.000918 0.875344 O
0.823530 0.501268 0.370756 O
0.819114 0.498711 0.874968 O
0.189556 0.189519 0.394188 O
0.177050 0.177068 0.865797 O
0.178445 0.679769 0.372258 O
0.178745 0.676537 0.873428 O
0.679833 0.178480 0.372255 O
0.676513 0.178719 0.873464 O
0.678298 0.678298 0.369836 O
0.679358 0.679361 0.876313 O
0.999625 0.321718 0.374955 O
0.999888 0.321580 0.871248 O
0.998851 0.822358 0.371268 O
1.000904 0.820442 0.875293 O
0.504495 0.323406 0.374067 O
0.495502 0.321444 0.867434 O
0.501319 0.823567 0.370787 O
0.498690 0.819099 0.874892 O
