Li8 Mn16 O48
1.0
9.996316 0.000009 0.001784
-4.998165 8.657059 -0.002284
-0.001468 0.001322 8.225567
Li Mn O
8 16 48
direct
-0.000974 -0.000016 -0.000363 Li
-0.002188 -0.003587 0.498652 Li
0.003966 0.499593 -0.000352 Li
-0.004390 0.499588 0.500338 Li
0.498599 -0.003581 0.001350 Li
0.500961 0.000002 0.500330 Li
0.511057 0.510448 -0.006714 Li
0.499377 0.510456 0.506698 Li
0.166419 0.338197 0.268693 Mn
0.167564 0.332215 0.748638 Mn
0.162426 0.824915 0.249981 Mn
0.164953 0.829850 0.749973 Mn
0.671760 0.338208 0.231331 Mn
0.664652 0.332235 0.751389 Mn
0.667114 0.834224 0.250011 Mn
0.667699 0.835405 0.750014 Mn
0.323662 0.147326 0.250010 Mn
0.331653 0.163284 0.749986 Mn
0.334362 0.667353 0.254776 Mn
0.334364 0.666322 0.753599 Mn
0.832542 0.165074 0.250002 Mn
0.833765 0.167523 0.750009 Mn
0.832976 0.667354 0.245239 Mn
0.832025 0.666377 0.746359 Mn
0.383195 0.357273 0.180858 O
0.324564 0.320546 0.626235 O
0.318742 0.817013 0.127480 O
0.321802 0.820177 0.630317 O
0.821414 0.318275 0.120290 O
0.820761 0.322691 0.628941 O
0.822361 0.823488 0.126081 O
0.819570 0.820613 0.623489 O
0.177482 0.993745 0.122326 O
0.177075 0.996537 0.625854 O
0.182060 0.497201 0.133278 O
0.179518 0.500972 0.628485 O
0.680337 1.000567 0.125509 O
0.679166 1.001573 0.626560 O
0.690791 0.504888 0.108051 O
0.673634 0.496525 0.624634 O
0.007163 0.181836 0.133480 O
-0.000544 0.177364 0.626086 O
-0.000602 0.676043 0.124881 O
-0.001468 0.676758 0.624839 O
0.497661 0.171105 0.129940 O
0.499816 0.171581 0.635607 O
0.499791 0.678216 0.130401 O
0.500645 0.680566 0.629697 O
0.316202 -0.006256 0.377657 O
0.319500 -0.003456 0.874100 O
0.314145 0.504863 0.392005 O
0.322864 0.496493 0.875349 O
0.820253 0.000587 0.374484 O
0.822345 0.001581 0.873461 O
0.815188 0.497209 0.366709 O
0.821462 0.501032 0.871503 O
0.173381 0.171075 0.370059 O
0.171744 0.171536 0.864414 O
0.176635 0.676115 0.375144 O
0.178239 0.676725 0.875097 O
0.674676 0.181842 0.366524 O
0.677925 0.177351 0.873948 O
0.678427 0.678159 0.369626 O
0.680016 0.680632 0.870357 O
0.996877 0.318290 0.379748 O
1.001921 0.322690 0.871066 O
0.998232 0.817107 0.372419 O
0.998460 0.820207 0.869628 O
0.474148 0.357275 0.319216 O
0.495948 0.320547 0.873756 O
0.501121 0.823500 0.373958 O
0.501014 0.820578 0.876499 O
