Li8 Mn16 O48                            
   1.00000000000000     
     9.9963160000000002    0.0000090000000000    0.0017840000000000
    -4.9981650000000002    8.6570590000000003   -0.0022840000000000
    -0.0014680000000000    0.0013220000000000    8.2255669999999999
   Li   Mn   O 
     8    16    48
Direct
  0.9994215985386912  1.0002861047923000  1.0002668130997263
  0.9980393295700776  0.9977910328092495  0.5000861306760034
  0.0016211362550676  0.4991307707917273  0.9996085200576219
  0.9975113998163322  0.4991118895158996  0.5003683120019017
  0.4997471276960174  0.9978000807829713 -0.0001139015633754
  0.5008459782476562  0.0002636306942535  0.4997613496845202
  0.5050923631197605  0.5050884934559099  0.9993098371073688
  0.4999951286659684  0.5051237221333612  0.5006843330069928
  0.1709211700088591  0.3363773526194004  0.2592918585082714
  0.1675253609316221  0.3318531262847822  0.7484097524048652
  0.1646251229318276  0.8292309795664495  0.2499979828944180
  0.1647814086676302  0.8295828179559316  0.7500194726802172
  0.6654094375060468  0.3363968427273932  0.2407266906632373
  0.6643389460212541  0.3318266223941370  0.7516014484123086
  0.6683544753133321  0.8367006783560462  0.2500039636684202
  0.6677041090400788  0.8353797653581005  0.7499775307552368
  0.3303407333980797  0.1607006019985346  0.2499736428207639
  0.3314232707530805  0.1628458464488129  0.7500278093422169
  0.3350364327099859  0.6676318133411319  0.2523633494003041
  0.3344233259311012  0.6658061738175732  0.7518549200108874
  0.8348743961697737  0.1698018264504637  0.2500114602710947
  0.8341466115235682  0.1682626465134461  0.7499890852032109
  0.8326184957250586  0.6676301471361283  0.2476552306640767
  0.8313681501664895  0.6657702245584183  0.7481308826373179
  0.3381074021165607  0.3362696460389562  0.1469648627902010
  0.3221444383187841  0.3182797809471627  0.6252512228390141
  0.3196422526104071  0.8184297675660996  0.1264464165437918
  0.3207793939647964  0.8192611046131537  0.6281610948258376
  0.8221916461378338  0.3219838777096499  0.1240545750582274
  0.8205260637930971  0.3225889340367811  0.6283288927793799
  0.8231815183192268  0.8245833968900808  0.1270300991498830
  0.8206785775314225  0.8213303390245843  0.6253446866919982
  0.1774819666077405  0.9967067529802287  0.1255019378930435
  0.1768339218101735  0.9959638682684067  0.6262692884717008
  0.1827028943784094  0.4991851619671858  0.1302810903153357
  0.1804544396463935  0.5002521454738971  0.6269696318340486
  0.6812881529350334  0.0027386132808427  0.1257441463020432
  0.6795519646258807  0.0018134765504888  0.6264887461216946
  0.6852734535149563  0.5041108022363613  0.1147581291931380
  0.6744093288183401  0.4971756160946924  0.6263982652947105
  0.0055897668473895  0.1812704906883661  0.1315742211220560
  0.9993812758234235  0.1788314207851576  0.6252126817778232
  0.9990374835130401  0.6762513820979751  0.1266969611567708
  0.9977535285758907  0.6757636389546327  0.6260663521536873
  0.4976786571156989  0.1737756069660160  0.1258531943642266
  0.4993273467488337  0.1723438393851099  0.6336505985827100
  0.5013596885136027  0.6808790287557032  0.1280962652190618
  0.5013268264208411  0.6800018080580714  0.6283801810979085
  0.3192675872791657  0.9967342364608810  0.3744501066106666
  0.3191100031123720  0.9959419648475691  0.8737942541327332
  0.3188015147526014  0.5040814547822873  0.3852499489446516
  0.3228257979281898  0.4972074766821968  0.8735738109368282
  0.8214281143359956  0.0027450152486128  0.3742654174823028
  0.8223017613960458  0.0018050428527510  0.8734666752419904
  0.8164389554805698  0.4991342278859030  0.3697920554958222
  0.8197987335078871  0.5002387649014581  0.8730361769452326
  0.1760537677516734  0.1737304356678891  0.3741015752492853
  0.1730770071360320  0.1724219101741385  0.8664323810826513
  0.1772278124621481  0.6762544094004785  0.3733118297037333
  0.1780339226727872  0.6757748497576374  0.8739362755624196
  0.6756248794522397  0.1812675942464102  0.3684356151825607
  0.6794808175273299  0.1788202858073240  0.8747944143524904
  0.6795284539752805  0.6808834623735709  0.3719091113259516
  0.6786454120502392  0.6799722601258495  0.8715649764920853
  0.9997258386275948  0.3219673233776219  0.3760057438570153
  0.0020801280835949  0.3226131138608465  0.8716618577729363
  0.9988152501631249  0.8184208636570973  0.3735696620052855
  0.9984362090148994  0.8192394113368922  0.8718422781528428
  0.4981042713423652  0.3362872270020368  0.3529997342342165
  0.4961676226563067  0.3183100048985999  0.8747534875221615
  0.5014455181640309  0.8245990470924854  0.3729979511368193
  0.5006802002047717  0.8213588028380825  0.8746138148426447
 
  0.00000000E+00  0.00000000E+00  0.00000000E+00
  0.00000000E+00  0.00000000E+00  0.00000000E+00
  0.00000000E+00  0.00000000E+00  0.00000000E+00
  0.00000000E+00  0.00000000E+00  0.00000000E+00
  0.00000000E+00  0.00000000E+00  0.00000000E+00
  0.00000000E+00  0.00000000E+00  0.00000000E+00
  0.00000000E+00  0.00000000E+00  0.00000000E+00
  0.00000000E+00  0.00000000E+00  0.00000000E+00
  0.00000000E+00  0.00000000E+00  0.00000000E+00
  0.00000000E+00  0.00000000E+00  0.00000000E+00
  0.00000000E+00  0.00000000E+00  0.00000000E+00
  0.00000000E+00  0.00000000E+00  0.00000000E+00
  0.00000000E+00  0.00000000E+00  0.00000000E+00
  0.00000000E+00  0.00000000E+00  0.00000000E+00
  0.00000000E+00  0.00000000E+00  0.00000000E+00
  0.00000000E+00  0.00000000E+00  0.00000000E+00
  0.00000000E+00  0.00000000E+00  0.00000000E+00
  0.00000000E+00  0.00000000E+00  0.00000000E+00
  0.00000000E+00  0.00000000E+00  0.00000000E+00
  0.00000000E+00  0.00000000E+00  0.00000000E+00
  0.00000000E+00  0.00000000E+00  0.00000000E+00
  0.00000000E+00  0.00000000E+00  0.00000000E+00
  0.00000000E+00  0.00000000E+00  0.00000000E+00
  0.00000000E+00  0.00000000E+00  0.00000000E+00
  0.00000000E+00  0.00000000E+00  0.00000000E+00
  0.00000000E+00  0.00000000E+00  0.00000000E+00
  0.00000000E+00  0.00000000E+00  0.00000000E+00
  0.00000000E+00  0.00000000E+00  0.00000000E+00
  0.00000000E+00  0.00000000E+00  0.00000000E+00
  0.00000000E+00  0.00000000E+00  0.00000000E+00
  0.00000000E+00  0.00000000E+00  0.00000000E+00
  0.00000000E+00  0.00000000E+00  0.00000000E+00
  0.00000000E+00  0.00000000E+00  0.00000000E+00
  0.00000000E+00  0.00000000E+00  0.00000000E+00
  0.00000000E+00  0.00000000E+00  0.00000000E+00
  0.00000000E+00  0.00000000E+00  0.00000000E+00
  0.00000000E+00  0.00000000E+00  0.00000000E+00
  0.00000000E+00  0.00000000E+00  0.00000000E+00
  0.00000000E+00  0.00000000E+00  0.00000000E+00
  0.00000000E+00  0.00000000E+00  0.00000000E+00
  0.00000000E+00  0.00000000E+00  0.00000000E+00
  0.00000000E+00  0.00000000E+00  0.00000000E+00
  0.00000000E+00  0.00000000E+00  0.00000000E+00
  0.00000000E+00  0.00000000E+00  0.00000000E+00
  0.00000000E+00  0.00000000E+00  0.00000000E+00
  0.00000000E+00  0.00000000E+00  0.00000000E+00
  0.00000000E+00  0.00000000E+00  0.00000000E+00
  0.00000000E+00  0.00000000E+00  0.00000000E+00
  0.00000000E+00  0.00000000E+00  0.00000000E+00
  0.00000000E+00  0.00000000E+00  0.00000000E+00
  0.00000000E+00  0.00000000E+00  0.00000000E+00
  0.00000000E+00  0.00000000E+00  0.00000000E+00
  0.00000000E+00  0.00000000E+00  0.00000000E+00
  0.00000000E+00  0.00000000E+00  0.00000000E+00
  0.00000000E+00  0.00000000E+00  0.00000000E+00
  0.00000000E+00  0.00000000E+00  0.00000000E+00
  0.00000000E+00  0.00000000E+00  0.00000000E+00
  0.00000000E+00  0.00000000E+00  0.00000000E+00
  0.00000000E+00  0.00000000E+00  0.00000000E+00
  0.00000000E+00  0.00000000E+00  0.00000000E+00
  0.00000000E+00  0.00000000E+00  0.00000000E+00
  0.00000000E+00  0.00000000E+00  0.00000000E+00
  0.00000000E+00  0.00000000E+00  0.00000000E+00
  0.00000000E+00  0.00000000E+00  0.00000000E+00
  0.00000000E+00  0.00000000E+00  0.00000000E+00
  0.00000000E+00  0.00000000E+00  0.00000000E+00
  0.00000000E+00  0.00000000E+00  0.00000000E+00
  0.00000000E+00  0.00000000E+00  0.00000000E+00
  0.00000000E+00  0.00000000E+00  0.00000000E+00
  0.00000000E+00  0.00000000E+00  0.00000000E+00
  0.00000000E+00  0.00000000E+00  0.00000000E+00
  0.00000000E+00  0.00000000E+00  0.00000000E+00
