Li8 Mn16 O48
1.0
9.996316 0.000009 0.001784
-4.998165 8.657059 -0.002284
-0.001468 0.001322 8.225567
Li Mn O
8 16 48
direct
-0.000365 -0.000006 -0.000136 Li
-0.000820 -0.001345 0.499495 Li
0.001487 0.499848 -0.000132 Li
-0.001646 0.499845 0.500127 Li
0.499475 -0.001343 0.000506 Li
0.500361 0.000001 0.500124 Li
0.504147 0.503918 -0.002518 Li
0.499766 0.503921 0.502512 Li
0.166574 0.335157 0.257009 Mn
0.167004 0.332914 0.749489 Mn
0.165077 0.830177 0.249993 Mn
0.166024 0.832027 0.749990 Mn
0.668577 0.335161 0.242999 Mn
0.665912 0.332921 0.750521 Mn
0.666835 0.833667 0.250004 Mn
0.667054 0.834110 0.750005 Mn
0.329706 0.159414 0.250004 Mn
0.332703 0.165398 0.749995 Mn
0.333719 0.666924 0.251791 Mn
0.333719 0.666537 0.751350 Mn
0.833036 0.166069 0.250001 Mn
0.833495 0.166988 0.750004 Mn
0.833199 0.666925 0.248215 Mn
0.832842 0.666558 0.748635 Mn
0.344611 0.334890 0.147281 O
0.322624 0.321117 0.626798 O
0.320441 0.819792 0.127264 O
0.321589 0.820979 0.628328 O
0.821443 0.320266 0.124568 O
0.821198 0.321922 0.627812 O
0.821798 0.822220 0.126740 O
0.820752 0.821142 0.625768 O
0.178143 0.997654 0.125332 O
0.177991 0.998701 0.626655 O
0.179860 0.498950 0.129439 O
0.178907 0.500364 0.627641 O
0.679214 1.000213 0.126525 O
0.678775 1.000590 0.626919 O
0.683134 0.501833 0.119978 O
0.676700 0.498697 0.626197 O
0.002686 0.179776 0.129514 O
-0.000204 0.178099 0.626742 O
-0.000226 0.677603 0.126290 O
-0.000551 0.677872 0.626274 O
0.499123 0.175752 0.128187 O
0.499931 0.175930 0.630312 O
0.499922 0.678418 0.128360 O
0.500242 0.679300 0.628096 O
0.319488 -0.002346 0.374662 O
0.320725 -0.001296 0.873328 O
0.318717 0.501824 0.380043 O
0.321987 0.498685 0.873797 O
0.821007 0.000220 0.373472 O
0.821792 0.000593 0.873089 O
0.819108 0.498953 0.370556 O
0.821461 0.500387 0.872354 O
0.176605 0.175740 0.371813 O
0.175991 0.175913 0.869696 O
0.177826 0.677630 0.373720 O
0.178427 0.677859 0.873702 O
0.677091 0.179778 0.370487 O
0.678309 0.178094 0.873271 O
0.678497 0.678397 0.371650 O
0.679093 0.679324 0.871925 O
0.998829 0.320271 0.375446 O
1.000720 0.321921 0.872190 O
0.999337 0.819828 0.372698 O
0.999422 0.820990 0.871651 O
0.490306 0.334891 0.352746 O
0.498481 0.321118 0.873199 O
0.500420 0.822225 0.373275 O
0.500380 0.821129 0.874228 O
